1
config_type=isolated_atom energy=-158.54496821 cutoff=5.50000000 nneightol=1.20000000 Lattice="20.00000000 0.00000000 0.00000000 0.00000000 20.00000000 0.00000000 0.00000000 0.00000000 20.00000000" pbc=[T, T, T] Properties=species:S:1:pos:R:3:forces:R:3
Si        10.00000000      10.00000000      10.00000000         0.00000000       0.00000000       0.00000000
2
config_type=dia task=SinglePoint cut_off_energy="250 eV" spin_polarized=F opt_strategy_bias=3 xc_functional=PW91 elec_energy_tol=0.00000010 max_scf_cycles=250 fix_occupancy=F calculate_stress=T finite_basis_corr=automatic smearing_width=0.05000000 fine_grid_scale=4 mixing_scheme=pulay mix_history_length=20 num_dump_cycles=0 popn_calculate=F mix_charge_amp=0.05000000 kpoints_mp_grid=[11, 11, 11] castep_file_name=md_sample_dia.xyz-00387/eval.castep castep_run_time=66.72000000 energy=-326.23641300 virial=[[-0.17514188, 0.11222387, 0.83258303], [0.11222387, 2.06032164, -0.37838018], [0.83258303, -0.37838018, -1.55166427]] in_file=md_sample_dia.xyz@387 cutoff_factor=1.20000000 cutoff=-1.00000000 nneightol=1.20000000 Lattice="3.86745100 0.00000000 0.00000000 1.90342700 3.24092400 0.00000000 1.72393300 1.06735300 3.25666600" pbc=[T, T, T] Properties=species:S:1:pos:R:3:forces:R:3
Si         0.00000000       0.00000000       0.00000000         0.32830000       0.85701000      -0.74716000
Si         1.93079670       1.11474656       0.78824344        -0.32830000      -0.85701000       0.74716000
2
config_type=dia task=SinglePoint cut_off_energy="250 eV" spin_polarized=F opt_strategy_bias=3 xc_functional=PW91 elec_energy_tol=0.00000010 max_scf_cycles=250 fix_occupancy=F calculate_stress=T finite_basis_corr=automatic smearing_width=0.05000000 fine_grid_scale=4 mixing_scheme=pulay mix_history_length=20 num_dump_cycles=0 popn_calculate=F mix_charge_amp=0.05000000 kpoints_mp_grid=[11, 11, 11] castep_file_name=md_sample_dia.xyz-00388/eval.castep castep_run_time=66.07000000 energy=-326.12843000 virial=[[-1.87014526, 0.77128738, 0.87612272], [0.77128738, 1.96171518, -0.41577308], [0.87612272, -0.41577308, 2.88399691]] in_file=md_sample_dia.xyz@388 cutoff_factor=1.20000000 cutoff=-1.00000000 nneightol=1.20000000 Lattice="4.05300900 0.00000000 0.00000000 1.93570900 3.23054800 0.00000000 1.85724400 0.96302800 3.03223300" pbc=[T, T, T] Properties=species:S:1:pos:R:3:forces:R:3
Si         0.00000000       0.00000000       0.00000000        -0.54204000       1.28048000       0.88643000
Si         1.93079559       1.11474490       0.78824413         0.54204000      -1.28048000      -0.88643000
2
config_type=dia task=SinglePoint cut_off_energy="250 eV" spin_polarized=F opt_strategy_bias=3 xc_functional=PW91 elec_energy_tol=0.00000010 max_scf_cycles=250 fix_occupancy=F calculate_stress=T finite_basis_corr=automatic smearing_width=0.05000000 fine_grid_scale=4 mixing_scheme=pulay mix_history_length=20 num_dump_cycles=0 popn_calculate=F mix_charge_amp=0.05000000 kpoints_mp_grid=[11, 11, 11] castep_file_name=md_sample_dia.xyz-00390/eval.castep castep_run_time=65.23000000 energy=-326.22934600 virial=[[0.76309107, -0.04145759, 0.58695163], [-0.04145759, -0.14150850, 0.49948180], [0.58695163, 0.49948180, -1.81808663]] in_file=md_sample_dia.xyz@390 cutoff_factor=1.20000000 cutoff=-1.00000000 nneightol=1.20000000 Lattice="3.79292700 0.00000000 0.00000000 1.82708500 3.35690500 0.00000000 1.67878100 1.05013400 3.26853100" pbc=[T, T, T] Properties=species:S:1:pos:R:3:forces:R:3
Si         0.00000000       0.00000000       0.00000000         0.93530000      -0.15970000      -0.68241000
Si         1.93079552       1.11474502       0.78824547        -0.93530000       0.15970000       0.68241000
2
config_type=dia task=SinglePoint cut_off_energy="250 eV" spin_polarized=F opt_strategy_bias=3 xc_functional=PW91 elec_energy_tol=0.00000010 max_scf_cycles=250 fix_occupancy=F calculate_stress=T finite_basis_corr=automatic smearing_width=0.05000000 fine_grid_scale=4 mixing_scheme=pulay mix_history_length=20 num_dump_cycles=0 popn_calculate=F mix_charge_amp=0.05000000 kpoints_mp_grid=[11, 11, 11] castep_file_name=md_sample_dia.xyz-00393/eval.castep castep_run_time=70.55000000 energy=-326.30100800 virial=[[-1.54861568, 0.72006364, 0.36266217], [0.72006364, 0.24470278, -0.60899057], [0.36266217, -0.60899057, -0.19884924]] in_file=md_sample_dia.xyz@393 cutoff_factor=1.20000000 cutoff=-1.00000000 nneightol=1.20000000 Lattice="3.99378500 0.00000000 0.00000000 1.89963500 3.31699800 0.00000000 1.93535900 1.19248500 3.15789800" pbc=[T, T, T] Properties=species:S:1:pos:R:3:forces:R:3
Si         0.00000000       0.00000000       0.00000000        -0.47895000       0.21422000       0.03229000
Si         1.93079697       1.11474557       0.78824292         0.47895000      -0.21422000      -0.03229000
2
config_type=dia task=SinglePoint cut_off_energy="250 eV" spin_polarized=F opt_strategy_bias=3 xc_functional=PW91 elec_energy_tol=0.00000010 max_scf_cycles=250 fix_occupancy=F calculate_stress=T finite_basis_corr=automatic smearing_width=0.05000000 fine_grid_scale=4 mixing_scheme=pulay mix_history_length=20 num_dump_cycles=0 popn_calculate=F mix_charge_amp=0.05000000 kpoints_mp_grid=[11, 11, 11] castep_file_name=md_sample_dia.xyz-00394/eval.castep castep_run_time=68.55000000 energy=-326.31228400 virial=[[0.03107798, 0.24645813, 0.28783940], [0.24645813, 0.32750165, -0.05586244], [0.28783940, -0.05586244, -1.54366652]] in_file=md_sample_dia.xyz@394 cutoff_factor=1.20000000 cutoff=-1.00000000 nneightol=1.20000000 Lattice="3.85426800 0.00000000 0.00000000 1.85671500 3.32496800 0.00000000 1.83156400 1.11008100 3.24305500" pbc=[T, T, T] Properties=species:S:1:pos:R:3:forces:R:3
Si         0.00000000       0.00000000       0.00000000         0.32581000       0.10406000      -0.51844000
Si         1.93079700       1.11474607       0.78824398        -0.32581000      -0.10406000       0.51844000
2
config_type=dia task=SinglePoint cut_off_energy="250 eV" spin_polarized=F opt_strategy_bias=3 xc_functional=PW91 elec_energy_tol=0.00000010 max_scf_cycles=250 fix_occupancy=F calculate_stress=T finite_basis_corr=automatic smearing_width=0.05000000 fine_grid_scale=4 mixing_scheme=pulay mix_history_length=20 num_dump_cycles=0 popn_calculate=F mix_charge_amp=0.05000000 kpoints_mp_grid=[12, 11, 11] castep_file_name=md_sample_dia.xyz-00395/eval.castep castep_run_time=78.52000000 energy=-326.28935300 virial=[[2.03449888, -0.60171041, -0.89138909], [-0.60171041, 1.19279855, 0.15503222], [-0.89138909, 0.15503222, 0.74017032]] in_file=md_sample_dia.xyz@395 cutoff_factor=1.20000000 cutoff=-1.00000000 nneightol=1.20000000 Lattice="3.73629000 0.00000000 0.00000000 1.90878600 3.30097800 0.00000000 2.03143800 1.10754200 3.12848100" pbc=[T, T, T] Properties=species:S:1:pos:R:3:forces:R:3
Si         0.00000000       0.00000000       0.00000000         0.33687000      -0.18264000      -0.26060000
Si         1.91066948       1.10312537       0.78002730        -0.33687000       0.18264000       0.26060000
2
config_type=dia task=SinglePoint cut_off_energy="250 eV" spin_polarized=F opt_strategy_bias=3 xc_functional=PW91 elec_energy_tol=0.00000010 max_scf_cycles=250 fix_occupancy=F calculate_stress=T finite_basis_corr=automatic smearing_width=0.05000000 fine_grid_scale=4 mixing_scheme=pulay mix_history_length=20 num_dump_cycles=0 popn_calculate=F mix_charge_amp=0.05000000 kpoints_mp_grid=[11, 11, 11] castep_file_name=md_sample_dia.xyz-00397/eval.castep castep_run_time=68.84000000 energy=-326.21237200 virial=[[0.74284828, -1.12696763, -0.04298553], [-1.12696763, 0.37268043, -0.10165028], [-0.04298553, -0.10165028, -2.19890555]] in_file=md_sample_dia.xyz@397 cutoff_factor=1.20000000 cutoff=-1.00000000 nneightol=1.20000000 Lattice="3.80313200 0.00000000 0.00000000 2.17103800 3.32850100 0.00000000 1.97726400 1.17274100 3.28935500" pbc=[T, T, T] Properties=species:S:1:pos:R:3:forces:R:3
Si         0.00000000       0.00000000       0.00000000        -0.44516000      -0.36075000      -0.81369000
Si         1.91066952       1.10312584       0.78002778         0.44516000       0.36075000       0.81369000
2
config_type=dia task=SinglePoint cut_off_energy="250 eV" spin_polarized=F opt_strategy_bias=3 xc_functional=PW91 elec_energy_tol=0.00000010 max_scf_cycles=250 fix_occupancy=F calculate_stress=T finite_basis_corr=automatic smearing_width=0.05000000 fine_grid_scale=4 mixing_scheme=pulay mix_history_length=20 num_dump_cycles=0 popn_calculate=F mix_charge_amp=0.05000000 kpoints_mp_grid=[11, 11, 11] castep_file_name=md_sample_dia.xyz-00398/eval.castep castep_run_time=64.24000000 energy=-326.25195400 virial=[[1.96242545, -0.18776922, -0.42977769], [-0.18776922, 0.57997648, 0.16908363], [-0.42977769, 0.16908363, 2.77345612]] in_file=md_sample_dia.xyz@398 cutoff_factor=1.20000000 cutoff=-1.00000000 nneightol=1.20000000 Lattice="3.74198600 0.00000000 0.00000000 1.81193500 3.33476900 0.00000000 1.89131300 1.14382800 3.04208400" pbc=[T, T, T] Properties=species:S:1:pos:R:3:forces:R:3
Si         0.00000000       0.00000000       0.00000000         0.65275000      -0.43465000       0.56257000
Si         1.91067176       1.10312654       0.78002684        -0.65275000       0.43465000      -0.56257000
2
config_type=dia task=SinglePoint cut_off_energy="250 eV" spin_polarized=F opt_strategy_bias=3 xc_functional=PW91 elec_energy_tol=0.00000010 max_scf_cycles=250 fix_occupancy=F calculate_stress=T finite_basis_corr=automatic smearing_width=0.05000000 fine_grid_scale=4 mixing_scheme=pulay mix_history_length=20 num_dump_cycles=0 popn_calculate=F mix_charge_amp=0.05000000 kpoints_mp_grid=[11, 12, 11] castep_file_name=md_sample_dia.xyz-00399/eval.castep castep_run_time=78.81000000 energy=-326.19883700 virial=[[-0.92821686, 0.61108647, 0.45684915], [0.61108647, 1.86771735, -1.26559527], [0.45684915, -1.26559527, -2.11027219]] in_file=md_sample_dia.xyz@399 cutoff_factor=1.20000000 cutoff=-1.00000000 nneightol=1.20000000 Lattice="3.94674500 0.00000000 0.00000000 1.92083700 3.23715300 0.00000000 1.90434700 1.25594400 3.29121000" pbc=[T, T, T] Properties=species:S:1:pos:R:3:forces:R:3
Si         0.00000000       0.00000000       0.00000000        -0.56669000       0.51337000      -0.87373000
Si         1.91067036       1.10312767       0.78002664         0.56669000      -0.51337000       0.87373000
2
config_type=dia task=SinglePoint cut_off_energy="250 eV" spin_polarized=F opt_strategy_bias=3 xc_functional=PW91 elec_energy_tol=0.00000010 max_scf_cycles=250 fix_occupancy=F calculate_stress=T finite_basis_corr=automatic smearing_width=0.05000000 fine_grid_scale=4 mixing_scheme=pulay mix_history_length=20 num_dump_cycles=0 popn_calculate=F mix_charge_amp=0.05000000 kpoints_mp_grid=[11, 11, 11] castep_file_name=md_sample_dia.xyz-00401/eval.castep castep_run_time=68.21000000 energy=-326.25863900 virial=[[0.36361248, -0.07563389, -0.75107734], [-0.07563389, -1.01110915, -0.05264406], [-0.75107734, -0.05264406, 1.09698195]] in_file=md_sample_dia.xyz@401 cutoff_factor=1.20000000 cutoff=-1.00000000 nneightol=1.20000000 Lattice="3.83287700 0.00000000 0.00000000 1.91844500 3.40975200 0.00000000 2.15553800 1.25449900 3.09101000" pbc=[T, T, T] Properties=species:S:1:pos:R:3:forces:R:3
Si         0.00000000       0.00000000       0.00000000        -0.46521000      -0.71115000       0.26589000
Si         1.91067349       1.10312579       0.78002874         0.46521000       0.71115000      -0.26589000
2
config_type=dia task=SinglePoint cut_off_energy="250 eV" spin_polarized=F opt_strategy_bias=3 xc_functional=PW91 elec_energy_tol=0.00000010 max_scf_cycles=250 fix_occupancy=F calculate_stress=T finite_basis_corr=automatic smearing_width=0.05000000 fine_grid_scale=4 mixing_scheme=pulay mix_history_length=20 num_dump_cycles=0 popn_calculate=F mix_charge_amp=0.05000000 kpoints_mp_grid=[11, 11, 11] castep_file_name=md_sample_dia.xyz-00403/eval.castep castep_run_time=67.21000000 energy=-326.26308700 virial=[[0.13624893, -0.69364922, -0.27949561], [-0.69364922, -0.17986428, 0.36264217], [-0.27949561, 0.36264217, -1.47719662]] in_file=md_sample_dia.xyz@403 cutoff_factor=1.20000000 cutoff=-1.00000000 nneightol=1.20000000 Lattice="3.84717500 0.00000000 0.00000000 2.12721200 3.35246000 0.00000000 2.06659400 1.06388800 3.23195300" pbc=[T, T, T] Properties=species:S:1:pos:R:3:forces:R:3
Si         0.00000000       0.00000000       0.00000000        -0.75747000      -0.21145000      -0.54124000
Si         1.91067104       1.10312700       0.78002862         0.75747000       0.21145000       0.54124000
2
config_type=dia task=SinglePoint cut_off_energy="250 eV" spin_polarized=F opt_strategy_bias=3 xc_functional=PW91 elec_energy_tol=0.00000010 max_scf_cycles=250 fix_occupancy=F calculate_stress=T finite_basis_corr=automatic smearing_width=0.05000000 fine_grid_scale=4 mixing_scheme=pulay mix_history_length=20 num_dump_cycles=0 popn_calculate=F mix_charge_amp=0.05000000 kpoints_mp_grid=[11, 11, 11] castep_file_name=md_sample_dia.xyz-00404/eval.castep castep_run_time=68.15000000 energy=-326.23627400 virial=[[1.53645986, -0.90029864, -0.33690376], [-0.90029864, 0.17014601, 0.34715223], [-0.33690376, 0.34715223, -2.21750653]] in_file=md_sample_dia.xyz@404 cutoff_factor=1.20000000 cutoff=-1.00000000 nneightol=1.20000000 Lattice="3.75979900 0.00000000 0.00000000 2.03266100 3.34614200 0.00000000 1.95970500 1.09584500 3.29871500" pbc=[T, T, T] Properties=species:S:1:pos:R:3:forces:R:3
Si         0.00000000       0.00000000       0.00000000         0.08226000      -0.39401000      -0.89724000
Si         1.91067100       1.10312529       0.78002734        -0.08226000       0.39401000       0.89724000
2
config_type=dia task=SinglePoint cut_off_energy="250 eV" spin_polarized=F opt_strategy_bias=3 xc_functional=PW91 elec_energy_tol=0.00000010 max_scf_cycles=250 fix_occupancy=F calculate_stress=T finite_basis_corr=automatic smearing_width=0.05000000 fine_grid_scale=4 mixing_scheme=pulay mix_history_length=20 num_dump_cycles=0 popn_calculate=F mix_charge_amp=0.05000000 kpoints_mp_grid=[11, 11, 11] castep_file_name=md_sample_dia.xyz-00406/eval.castep castep_run_time=66.30000000 energy=-326.27314600 virial=[[1.48630653, 0.44739488, -0.81537965], [0.44739488, -0.83807327, 0.75888010], [-0.81537965, 0.75888010, -0.38391862]] in_file=md_sample_dia.xyz@406 cutoff_factor=1.20000000 cutoff=-1.00000000 nneightol=1.20000000 Lattice="3.77044900 0.00000000 0.00000000 1.74962600 3.41129800 0.00000000 2.02506100 1.07515200 3.16808500" pbc=[T, T, T] Properties=species:S:1:pos:R:3:forces:R:3
Si         0.00000000       0.00000000       0.00000000         0.11323000      -0.75630000      -0.38063000
Si         1.89292321       1.09287896       0.77278147        -0.11323000       0.75630000       0.38063000
2
config_type=dia task=SinglePoint cut_off_energy="250 eV" spin_polarized=F opt_strategy_bias=3 xc_functional=PW91 elec_energy_tol=0.00000010 max_scf_cycles=250 fix_occupancy=F calculate_stress=T finite_basis_corr=automatic smearing_width=0.05000000 fine_grid_scale=4 mixing_scheme=pulay mix_history_length=20 num_dump_cycles=0 popn_calculate=F mix_charge_amp=0.05000000 kpoints_mp_grid=[11, 11, 11] castep_file_name=md_sample_dia.xyz-00407/eval.castep castep_run_time=62.95000000 energy=-326.27448200 virial=[[1.21333118, 0.59629344, 0.04012697], [0.59629344, -0.39984095, 1.10903371], [0.04012697, 1.10903371, 1.34852089]] in_file=md_sample_dia.xyz@407 cutoff_factor=1.20000000 cutoff=-1.00000000 nneightol=1.20000000 Lattice="3.79593200 0.00000000 0.00000000 1.75633100 3.37202900 0.00000000 1.85075900 0.90336300 3.08601700" pbc=[T, T, T] Properties=species:S:1:pos:R:3:forces:R:3
Si         0.00000000       0.00000000       0.00000000         0.21457000      -0.26763000       0.13497000
Si         1.89292097       1.09288015       0.77278186        -0.21457000       0.26763000      -0.13497000
2
config_type=dia task=SinglePoint cut_off_energy="250 eV" spin_polarized=F opt_strategy_bias=3 xc_functional=PW91 elec_energy_tol=0.00000010 max_scf_cycles=250 fix_occupancy=F calculate_stress=T finite_basis_corr=automatic smearing_width=0.05000000 fine_grid_scale=4 mixing_scheme=pulay mix_history_length=20 num_dump_cycles=0 popn_calculate=F mix_charge_amp=0.05000000 kpoints_mp_grid=[12, 12, 11] castep_file_name=md_sample_dia.xyz-00408/eval.castep castep_run_time=75.89000000 energy=-326.13192400 virial=[[0.67541033, 0.19634157, -0.99167103], [0.19634157, 2.81635915, -0.40951259], [-0.99167103, -0.40951259, 2.75901312]] in_file=md_sample_dia.xyz@408 cutoff_factor=1.20000000 cutoff=-1.00000000 nneightol=1.20000000 Lattice="3.82268000 0.00000000 0.00000000 1.88134800 3.21139300 0.00000000 2.26617600 1.12824400 3.03107800" pbc=[T, T, T] Properties=species:S:1:pos:R:3:forces:R:3
Si         0.00000000       0.00000000       0.00000000        -0.57528000       0.53604000       0.16259000
Si         1.89292215       1.09288030       0.77278243         0.57528000      -0.53604000      -0.16259000
2
config_type=dia task=SinglePoint cut_off_energy="250 eV" spin_polarized=F opt_strategy_bias=3 xc_functional=PW91 elec_energy_tol=0.00000010 max_scf_cycles=250 fix_occupancy=F calculate_stress=T finite_basis_corr=automatic smearing_width=0.05000000 fine_grid_scale=4 mixing_scheme=pulay mix_history_length=20 num_dump_cycles=0 popn_calculate=F mix_charge_amp=0.05000000 kpoints_mp_grid=[11, 11, 11] castep_file_name=md_sample_dia.xyz-00410/eval.castep castep_run_time=63.55000000 energy=-326.17464300 virial=[[3.52089446, -0.45013380, -0.33030335], [-0.45013380, 1.04909266, 0.28963737], [-0.33030335, 0.28963737, 0.11997813]] in_file=md_sample_dia.xyz@410 cutoff_factor=1.20000000 cutoff=-1.00000000 nneightol=1.20000000 Lattice="3.65433500 0.00000000 0.00000000 1.74030400 3.31986100 0.00000000 1.73626800 1.16744300 3.16090200" pbc=[T, T, T] Properties=species:S:1:pos:R:3:forces:R:3
Si         0.00000000       0.00000000       0.00000000         1.40627000      -0.88503000      -0.75670000
Si         1.89292283       1.09287871       0.77278364        -1.40627000       0.88503000       0.75670000
2
config_type=dia task=SinglePoint cut_off_energy="250 eV" spin_polarized=F opt_strategy_bias=3 xc_functional=PW91 elec_energy_tol=0.00000010 max_scf_cycles=250 fix_occupancy=F calculate_stress=T finite_basis_corr=automatic smearing_width=0.05000000 fine_grid_scale=4 mixing_scheme=pulay mix_history_length=20 num_dump_cycles=0 popn_calculate=F mix_charge_amp=0.05000000 kpoints_mp_grid=[11, 11, 11] castep_file_name=md_sample_dia.xyz-00411/eval.castep castep_run_time=68.35000000 energy=-326.17604000 virial=[[-0.24477623, -0.30340914, 1.84754457], [-0.30340914, 0.12204902, -0.06810359], [1.84754457, -0.06810359, -1.10305408]] in_file=md_sample_dia.xyz@411 cutoff_factor=1.20000000 cutoff=-1.00000000 nneightol=1.20000000 Lattice="3.87011100 0.00000000 0.00000000 2.12925700 3.33211000 0.00000000 1.54375100 1.23217800 3.20627900" pbc=[T, T, T] Properties=species:S:1:pos:R:3:forces:R:3
Si         0.00000000       0.00000000       0.00000000        -0.27661000      -0.41609000      -0.56588000
Si         1.89292439       1.09287980       0.77278378         0.27661000       0.41609000       0.56588000
2
config_type=dia task=SinglePoint cut_off_energy="250 eV" spin_polarized=F opt_strategy_bias=3 xc_functional=PW91 elec_energy_tol=0.00000010 max_scf_cycles=250 fix_occupancy=F calculate_stress=T finite_basis_corr=automatic smearing_width=0.05000000 fine_grid_scale=4 mixing_scheme=pulay mix_history_length=20 num_dump_cycles=0 popn_calculate=F mix_charge_amp=0.05000000 kpoints_mp_grid=[11, 12, 11] castep_file_name=md_sample_dia.xyz-00412/eval.castep castep_run_time=72.30000000 energy=-326.19220700 virial=[[1.01860111, 0.58401284, 0.93904123], [0.58401284, 2.93933346, -0.63608815], [0.93904123, -0.63608815, 0.78361675]] in_file=md_sample_dia.xyz@412 cutoff_factor=1.20000000 cutoff=-1.00000000 nneightol=1.20000000 Lattice="3.79963300 0.00000000 0.00000000 1.76587500 3.20540800 0.00000000 1.60156300 1.15030900 3.12392700" pbc=[T, T, T] Properties=species:S:1:pos:R:3:forces:R:3
Si         0.00000000       0.00000000       0.00000000         0.46240000       0.49058000      -0.51504000
Si         1.89292125       1.09287825       0.77278144        -0.46240000      -0.49058000       0.51504000
2
config_type=bt energy=-323.96227600 virial=[[6.60426000, -0.96605500, -2.47678000], [-0.96605500, 15.14500000, 4.00592000], [-2.47678000, 4.00592000, 2.31602000]] cutoff=-1.00000000 nneightol=1.20000000 Lattice="2.03867400 -2.15884000 -1.21406200 -2.22414100 2.22159800 -1.66888100 2.18015800 2.11485700 1.55487000" pbc=[T, T, T] Properties=species:S:1:pos:R:3:forces:R:3
Si         1.10554620      -0.16128625       1.08036032         1.81196000       6.30656000       1.01553000
Si        -1.10554620       0.16128625      -1.08036032        -1.81196000      -6.30656000      -1.01553000
2
config_type=bt energy=-325.29060100 virial=[[-0.53417800, -0.30404600, -0.13513800], [-0.30404600, -1.59663000, -0.36657100], [-0.13513800, -0.36657100, 4.59347000]] cutoff=-1.00000000 nneightol=1.20000000 Lattice="2.39477600 -2.61966100 -1.15933700 -2.48662400 2.52980700 -1.16338900 2.65727500 2.79031200 1.32822300" pbc=[T, T, T] Properties=species:S:1:pos:R:3:forces:R:3
Si         1.29853056       0.11377103       0.82031472         0.02108000       0.08060000       0.03091000
Si        -1.29853056      -0.11377103      -0.82031472        -0.02108000      -0.08060000      -0.03091000
2
config_type=bt energy=-325.27721800 virial=[[4.18351000, 0.36935000, -0.98119000], [0.36935000, 5.02530000, -0.34537200], [-0.98119000, -0.34537200, 0.97014200]] cutoff=-1.00000000 nneightol=1.20000000 Lattice="2.27172600 -2.13522100 -1.39841900 -2.30492900 2.18854300 -1.55738000 2.26122100 2.09151400 1.45889400" pbc=[T, T, T] Properties=species:S:1:pos:R:3:forces:R:3
Si         1.08986942       0.01150858       1.16671081         1.24007000      -0.63267000       0.29821000
Si        -1.08986942      -0.01150858      -1.16671081        -1.24007000       0.63267000      -0.29821000
2
config_type=bt energy=-325.27857200 virial=[[-2.78426000, -0.32569000, -0.24545100], [-0.32569000, -0.54186800, 0.11916600], [-0.24545100, 0.11916600, 2.67948000]] cutoff=-1.00000000 nneightol=1.20000000 Lattice="2.65291700 -2.33174600 -1.02937600 -2.68203700 2.47609600 -1.34923900 2.89672100 2.54642900 1.08342300" pbc=[T, T, T] Properties=species:S:1:pos:R:3:forces:R:3
Si         1.46360955       0.04330307       1.01698622         0.21433000      -0.16994000       0.01166000
Si        -1.46360955      -0.04330307      -1.01698622        -0.21433000       0.16994000      -0.01166000
2
config_type=bt energy=-325.29520700 virial=[[-2.89873000, -0.38379600, 0.14682700], [-0.38379600, -0.65853400, -0.16673600], [0.14682700, -0.16673600, 1.83150000]] cutoff=-1.00000000 nneightol=1.20000000 Lattice="2.73361500 -2.40151300 -1.25811900 -2.69089500 2.39073900 -1.16129200 2.89220000 2.60281800 1.18049600" pbc=[T, T, T] Properties=species:S:1:pos:R:3:forces:R:3
Si         1.50107889       0.12502432       1.10696507         0.25616000      -0.18577000      -0.05775000
Si        -1.50107889      -0.12502432      -1.10696507        -0.25616000       0.18577000       0.05775000
2
config_type=bt energy=-324.43052300 virial=[[1.57957000, -0.78533700, 0.68251600], [-0.78533700, 11.24490000, -5.27280000], [0.68251600, -5.27280000, 3.62549000]] cutoff=-1.00000000 nneightol=1.20000000 Lattice="2.58582900 -2.07092300 -1.78285800 -2.47869700 1.84588200 -1.17142000 2.39180900 1.98403500 1.58541400" pbc=[T, T, T] Properties=species:S:1:pos:R:3:forces:R:3
Si         1.13130421       0.08270456       1.61138877        -0.20108000       4.65827000      -2.49263000
Si        -1.13130421      -0.08270456      -1.61138877         0.20108000      -4.65827000       2.49263000
2
config_type=bt energy=-325.48161600 virial=[[3.04513000, 0.10105900, 0.76258100], [0.10105900, -1.54432000, 0.16733400], [0.76258100, 0.16733400, 0.43919500]] cutoff=-1.00000000 nneightol=1.20000000 Lattice="2.38971700 -2.51242900 -1.24733300 -2.36305600 2.57309900 -1.31050100 2.34702000 2.49639200 1.19897200" pbc=[T, T, T] Properties=species:S:1:pos:R:3:forces:R:3
Si         1.24021330      -0.03084452       1.07490369        -1.62283000      -0.04272000      -0.31550000
Si        -1.24021330       0.03084452      -1.07490369         1.62283000       0.04272000       0.31550000
2
config_type=bt energy=-325.53181800 virial=[[-0.69478200, -0.91266000, 0.73810500], [-0.91266000, -1.29293000, -0.03510130], [0.73810500, -0.03510130, -1.22245000]] cutoff=-1.00000000 nneightol=1.20000000 Lattice="2.49880800 -2.27791100 -1.44349700 -2.41250800 2.28258800 -1.29332500 2.56735200 2.43275500 1.28429200" pbc=[T, T, T] Properties=species:S:1:pos:R:3:forces:R:3
Si         1.16259394       0.07896997       1.37880905         0.56558000      -0.10878000       0.10475000
Si        -1.16259394      -0.07896997      -1.37880905        -0.56558000       0.10878000      -0.10475000
2
config_type=bt energy=-325.43183100 virial=[[-0.93378600, 0.27570800, 1.02483000], [0.27570800, 2.54173000, 1.31488000], [1.02483000, 1.31488000, 0.93528100]] cutoff=-1.00000000 nneightol=1.20000000 Lattice="2.68356000 -2.15269500 -1.38796800 -2.50484200 2.25664100 -1.24983200 2.51437800 2.16223100 1.05822800" pbc=[T, T, T] Properties=species:S:1:pos:R:3:forces:R:3
Si         1.14079923      -0.04558211       1.42908811        -0.08302000      -0.80544000      -0.30153000
Si        -1.14079923       0.04558211      -1.42908811         0.08302000       0.80544000       0.30153000
2
config_type=bt energy=-325.29953000 virial=[[-0.40337300, -0.18726300, -0.01252400], [-0.18726300, -2.11404000, 0.28100500], [-0.01252400, 0.28100500, 5.11769000]] cutoff=-1.00000000 nneightol=1.20000000 Lattice="2.49507000 -2.59371000 -1.14198100 -2.48091900 2.62426600 -1.17254400 2.55563100 2.66842300 1.11626800" pbc=[T, T, T] Properties=species:S:1:pos:R:3:forces:R:3
Si         1.29571303       0.00976893       0.62421499        -0.06399000       0.01335000       0.00013000
Si        -1.29571303      -0.00976893      -0.62421499         0.06399000      -0.01335000      -0.00013000
2
config_type=bt energy=-324.35488900 virial=[[9.36900000, -0.47255900, 0.84221500], [-0.47255900, 10.29670000, 0.59758000], [0.84221500, 0.59758000, 4.37833000]] cutoff=-1.00000000 nneightol=1.20000000 Lattice="1.85497800 -2.01124300 -1.34842200 -1.84925300 2.06725800 -1.44120100 2.12054900 2.28253900 1.33823200" pbc=[T, T, T] Properties=species:S:1:pos:R:3:forces:R:3
Si         1.01998796       0.03249739       0.90406032        -0.81082000       0.90608000      -0.77703000
Si        -1.01998796      -0.03249739      -0.90406032         0.81082000      -0.90608000       0.77703000
2
config_type=bt energy=-325.23175400 virial=[[1.32607000, -0.45111000, -0.66742200], [-0.45111000, 0.70263000, 0.16237700], [-0.66742200, 0.16237700, 6.47856000]] cutoff=-1.00000000 nneightol=1.20000000 Lattice="2.29750800 -2.40223500 -1.10792200 -2.38851900 2.35827100 -1.19420600 2.60034400 2.61406000 1.27590300" pbc=[T, T, T] Properties=species:S:1:pos:R:3:forces:R:3
Si         1.29408271       0.00056571       1.03714859        -0.40316000       0.27895000      -0.00082000
Si        -1.29408271      -0.00056571      -1.03714859         0.40316000      -0.27895000       0.00082000
2
config_type=bt energy=-324.84252600 virial=[[0.23840700, -0.17674500, 0.13319600], [-0.17674500, 5.39710000, -1.31363000], [0.13319600, -1.31363000, 8.09164000]] cutoff=-1.00000000 nneightol=1.20000000 Lattice="2.69630400 -2.43694100 -1.26948300 -2.69442000 2.29935800 -1.01081500 2.51146700 2.25398800 1.26522100" pbc=[T, T, T] Properties=species:S:1:pos:R:3:forces:R:3
Si         1.21966465      -0.05751233       1.25199714        -0.05510000       2.08218000      -0.60444000
Si        -1.21966465       0.05751233      -1.25199714         0.05510000      -2.08218000       0.60444000
2
config_type=bt energy=-325.18817000 virial=[[4.60273000, 0.61642500, -1.59612000], [0.61642500, 0.79862400, -0.93111700], [-1.59612000, -0.93111700, 1.22202000]] cutoff=-1.00000000 nneightol=1.20000000 Lattice="2.08650700 -2.70959700 -1.50922600 -2.21713400 2.44462300 -1.26125300 2.09239500 2.58485800 1.74972700" pbc=[T, T, T] Properties=species:S:1:pos:R:3:forces:R:3
Si         1.05847877      -0.02219603       0.55115009        -1.05702000       0.32564000       0.68386000
Si        -1.05847877       0.02219603      -0.55115009         1.05702000      -0.32564000      -0.68386000
2
config_type=bt energy=-324.97858900 virial=[[-2.08625000, 0.19696500, -0.08862330], [0.19696500, 2.80124000, -0.40195600], [-0.08862330, -0.40195600, 6.66897000]] cutoff=-1.00000000 nneightol=1.20000000 Lattice="2.80627200 -2.39163300 -1.11854100 -2.91417200 2.30990200 -1.16686700 2.78541600 2.26287700 1.31764400" pbc=[T, T, T] Properties=species:S:1:pos:R:3:forces:R:3
Si         1.49638759      -0.00958936       1.29032582         0.15155000       0.57011000      -0.10878000
Si        -1.49638759       0.00958936      -1.29032582        -0.15155000      -0.57011000       0.10878000
2
config_type=bt energy=-324.54254500 virial=[[10.85760000, -0.20806600, 1.04951000], [-0.20806600, 8.14833000, 0.90195000], [1.04951000, 0.90195000, 3.27928000]] cutoff=-1.00000000 nneightol=1.20000000 Lattice="2.12350200 -1.97665900 -1.34897000 -2.15334300 2.00343100 -1.45368300 2.24739300 2.07070900 1.40453400" pbc=[T, T, T] Properties=species:S:1:pos:R:3:forces:R:3
Si         1.18249255      -0.00878339       1.18782545        -2.77165000       0.74762000       0.10067000
Si        -1.18249255       0.00878339      -1.18782545         2.77165000      -0.74762000      -0.10067000
2
config_type=bt energy=-325.34767000 virial=[[4.05900000, -0.15448800, 0.28576100], [-0.15448800, 2.96856000, 0.24334800], [0.28576100, 0.24334800, 3.72524000]] cutoff=-1.00000000 nneightol=1.20000000 Lattice="2.14200600 -2.40462100 -1.25344900 -2.10749500 2.44451400 -1.26287300 2.14679700 2.44392300 1.18985900" pbc=[T, T, T] Properties=species:S:1:pos:R:3:forces:R:3
Si         1.06237263      -0.07600332       0.68615945        -0.09687000       0.96662000      -0.07471000
Si        -1.06237263       0.07600332      -0.68615945         0.09687000      -0.96662000       0.07471000
2
config_type=bt energy=-323.64618300 virial=[[17.06070000, -0.12322800, 0.37202000], [-0.12322800, 10.56110000, 0.86209000], [0.37202000, 0.86209000, 5.59490000]] cutoff=-1.00000000 nneightol=1.20000000 Lattice="2.10244000 -2.01062500 -1.17472500 -2.22094900 2.09321400 -1.54572600 2.06309100 1.85276700 1.39338300" pbc=[T, T, T] Properties=species:S:1:pos:R:3:forces:R:3
Si         1.12926570      -0.05763184       1.24504338        -1.14485000       0.62372000       0.05666000
Si        -1.12926570       0.05763184      -1.24504338         1.14485000      -0.62372000      -0.05666000
2
config_type=bt energy=-325.17637000 virial=[[0.43217500, -0.10447700, 0.62489200], [-0.10447700, 0.91902500, 0.08982250], [0.62489200, 0.08982250, 7.93473000]] cutoff=-1.00000000 nneightol=1.20000000 Lattice="2.50931700 -2.41816500 -1.15435700 -2.44370000 2.45966200 -1.10938300 2.50808800 2.48255200 1.03327100" pbc=[T, T, T] Properties=species:S:1:pos:R:3:forces:R:3
Si         1.19593715      -0.05737607       1.02190243         0.20217000       0.20731000       0.03070000
Si        -1.19593715       0.05737607      -1.02190243        -0.20217000      -0.20731000      -0.03070000
64
config_type=liq energy=-10399.00525800 virial=[[30.54882880, -12.07330259, -6.49185899], [-12.07330259, 18.33527568, 8.60475328], [-6.49185899, 8.60475328, 10.95645076]] cutoff=-1.00000000 nneightol=1.20000000 Lattice="10.91400000 0.00000000 0.00000000 0.00000000 10.91400000 0.00000000 0.00000000 0.00000000 10.91400000" pbc=[T, T, T] Properties=species:S:1:pos:R:3:forces:R:3
Si        -1.55564880      -5.03175780       1.22722470         0.06512000      -0.06395000       0.84438000
Si        -4.89684990       2.31263290      -1.10534810         0.65486000      -1.54094000       1.32340000
Si        -3.22195470      -3.89697470      -4.57706970         0.02610000       0.83206000       1.84312000
Si         1.91383540      -2.78840700      -4.49020510         1.08140000       1.00432000       0.07694000
Si        -3.23315240      -0.84818150       1.72766440         0.11277000      -0.89625000       0.05668000
Si         1.36438100      -0.99019450      -2.72294480         2.95130000      -0.15346000       2.66279000
Si        -0.07922470       2.81669600      -3.32667450         0.05843000       0.98371000       0.13890000
Si        -5.20205990       4.47303740       3.37955280         0.81434000       2.05753000       1.48423000
Si         0.43089560      -4.11308280       2.14287660        -0.32384000       0.97903000      -0.58700000
Si         3.49234900      -1.09955280       4.85092370        -0.21183000      -0.67530000      -0.32604000
Si         0.43553410       2.27661670       5.30735810         1.41551000       3.91952000       0.67772000
Si         2.42390120      -1.28492710       2.66254670        -1.32632000       2.42781000       1.26462000
Si         5.15648300       4.31860430      -3.62066490        -2.06615000      -0.17770000      -0.18912000
Si        -0.02909670       5.15751980      -2.25356640         0.37727000      -0.27652000      -0.82826000
Si         3.77352640       0.33656590      -4.27044080         1.16970000       0.88326000      -0.12369000
Si         2.38774310      -4.07606250      -2.54971780        -3.36867000       0.76330000       0.38183000
Si        -5.21695750      -3.13936840      -1.47098890         0.41311000      -0.61854000      -0.84256000
Si        -1.84018770       2.61120720       3.93097180        -0.90050000       1.59473000       2.56393000
Si        -4.98719600       2.78693360       2.10537610         1.31733000      -1.19227000      -1.78083000
Si        -5.41623620      -0.91663410       3.07435380        -0.24087000      -0.04084000       0.51338000
Si        -0.98412630       3.50218260       1.77626440        -0.99240000       3.86663000      -2.36154000
Si        -0.02264660      -2.27709700       0.29838880        -1.98821000      -0.27073000       1.77155000
Si        -2.91807620       1.42886090       2.30018010        -1.61533000       0.62092000      -0.56359000
Si        -1.98433980       4.99742240      -0.91391650         3.84833000      -2.43134000       0.21505000
Si        -0.34479510       1.70542160       2.56688550         3.46695000      -4.22587000       0.81065000
Si        -1.08123910      -3.92039610      -3.38179020        -0.83042000      -0.66692000       1.26368000
Si         1.88543720      -2.42379200      -0.66871170         2.04450000      -0.05540000      -2.56005000
Si        -3.85033910      -5.04249720      -0.96322600        -1.61741000       4.31396000      -0.20961000
Si        -5.23826160       4.40405000      -0.38257940        -2.58754000      -1.79782000       2.58015000
Si         3.65269750      -4.19749170      -4.86061540        -0.95474000      -0.37239000      -1.24312000
Si        -3.36099900      -3.43203830       1.27570470        -0.41262000      -0.10176000      -0.11420000
Si         0.66889720       1.73505310      -1.25561200         4.15285000       2.29270000      -2.35778000
Si        -3.57432410      -1.71656480       4.38407740         0.16649000       0.03466000      -0.68012000
Si         4.60015280       0.54384460      -0.12631860         0.03048000      -0.59160000      -4.88748000
Si        -2.13936230       3.03057770      -4.62627000        -0.57683000      -0.13714000       0.67725000
Si         3.36517910       2.80115450      -4.30526740        -0.37143000      -0.80280000      -0.51994000
Si         1.30949450       3.35569480       0.59505310         0.58612000      -0.22992000      -0.09287000
Si        -0.98284940       0.96447020      -0.33647860        -2.85613000      -3.31853000       0.48603000
Si         4.22779980      -5.09021320      -2.13917670         1.60425000      -0.22128000       0.84965000
Si        -2.91623170       5.03669090       3.90118750         0.35385000      -0.15386000       0.09171000
Si         2.66221930       3.01159830       4.18852040        -0.75975000       0.64068000       1.76450000
Si        -1.69648310      -2.30103140      -1.52208830         0.70606000      -1.72238000       0.17982000
Si        -5.21365050      -4.92808570      -4.97308420         1.67373000       0.19742000      -1.49875000
Si        -4.28052540       2.82160730      -3.17285260         2.41366000      -1.95435000      -1.09136000
Si        -3.76525360      -1.85501980      -2.94088640        -0.76806000      -0.47722000      -0.81816000
Si         3.63273580       5.19749780       3.82932970        -1.83430000       0.71116000       0.26767000
Si        -2.54373690       2.49358710      -0.12032680        -1.33111000       1.84193000       0.28606000
Si         4.55863590       1.02973590       1.88706330        -1.12619000       0.37951000       3.61236000
Si        -0.20201810      -2.90160700      -5.26381130        -0.20300000      -2.01159000      -1.63610000
Si        -0.03708580       0.29495080       4.83107120        -0.99027000      -2.77567000      -1.16739000
Si         4.03630280      -2.55183510       1.98590050         1.25406000      -0.42607000      -2.11116000
Si        -0.83573950      -0.32969010       1.60814520        -0.17194000      -2.02250000      -0.27589000
Si         0.38383450      -1.95452280       3.39256230        -0.82399000      -0.04435000      -0.27112000
Si         2.73474280      -4.55039590       1.58666640        -0.95514000       1.62549000       3.02376000
Si        -4.60138610       0.50721720      -3.93598130        -0.97501000      -0.25414000       0.75386000
Si        -2.00821970      -0.30558110      -2.52580520         0.97250000       1.39921000      -0.34460000
Si        -5.32751630      -4.08784960       2.67434470         1.79531000      -0.19782000       0.28938000
Si         2.25161280       1.62289000       2.43661600        -0.06859000      -0.59953000      -1.05431000
Si         2.88198360       0.96320420      -2.20831690        -0.49708000       0.19041000       0.97894000
Si        -2.06976370      -3.57183570       4.40747700        -0.30534000      -0.32511000      -1.57199000
Si        -3.17657430       0.47831700       5.20652370         1.24909000       0.07290000      -0.91934000
Si         4.13827230      -1.76592890      -0.49943560         0.07524000       0.24415000       1.67443000
Si         3.45272030       5.06960760       0.09882630         0.41621000      -2.62282000      -2.30210000
Si        -0.10134740      -1.03709190      -4.21224740        -3.21589000       2.56968000      -0.07832000
64
config_type=liq energy=-10400.91334800 virial=[[17.97075413, -4.07070565, 11.79037545], [-4.07070565, 2.78487161, -3.38513737], [11.79037545, -3.38513737, 1.57900917]] cutoff=-1.00000000 nneightol=1.20000000 Lattice="10.91400000 0.00000000 0.00000000 0.00000000 10.91400000 0.00000000 0.00000000 0.00000000 10.91400000" pbc=[T, T, T] Properties=species:S:1:pos:R:3:forces:R:3
Si        -1.54047840      -4.98483850       1.23963390        -2.16772000       0.15629000      -0.35259000
Si        -4.78223100       2.30083490      -1.08173020        -0.71225000      -0.21346000       0.44557000
Si        -3.35170030      -3.93458430      -4.24444370         2.21644000       2.25451000       0.62171000
Si         1.88014390      -2.73385880      -4.41395990         1.50419000       0.52322000       0.20992000
Si        -3.28726410      -0.77616000       1.50358900        -0.05428000      -0.98949000       0.33983000
Si         1.35614090      -0.98722590      -2.44417940         0.13303000       0.10394000      -0.49094000
Si        -0.11712900       2.85935890      -3.14985680         0.21882000       0.67843000      -0.63905000
Si        -5.07693090       4.62183890       3.22279510        -0.82898000      -0.12149000       0.00132000
Si         0.23699750      -4.05414720       2.06416480         1.81752000       1.06304000      -0.02042000
Si         3.51426430      -0.92408840       4.83624440         0.13136000      -0.88068000       0.25077000
Si         0.43804430       2.18693640       5.44671900         0.19832000       0.77799000      -0.12267000
Si         2.52783520      -1.21647440       2.79598130        -0.96654000       0.55821000      -0.09316000
Si         5.12915440       4.11244980      -3.65556790         1.13893000       1.23196000      -0.72381000
Si        -0.08587130       5.17419640      -2.23864690         2.81982000      -0.15118000      -2.37192000
Si         3.66166880       0.60321680      -4.38931610         1.08551000       0.91873000       0.41766000
Si         2.41515910      -4.15155460      -2.54274370        -1.00759000      -1.04099000      -0.05129000
Si        -5.06311370      -3.20871600      -1.77511840        -3.94925000       3.41759000      -0.27001000
Si        -1.94402350       2.91744320       4.05061100         0.24945000       0.44487000       0.01011000
Si        -4.98430370       2.48687490       2.18547390         0.40785000       0.92605000      -0.01015000
Si        -5.46069990      -0.80747230       3.18044870        -1.18555000      -0.29879000      -0.05814000
Si        -1.22576230       3.71012700       1.71731790         0.45120000      -1.51929000      -0.02672000
Si        -0.18539610      -2.20736740       0.42667190         1.34987000      -1.07464000      -0.01402000
Si        -2.89058380       1.44122640       2.39401860        -0.88462000       0.48994000       0.17276000
Si        -1.73496580       4.94117160      -0.92367370        -2.66524000      -0.46777000       1.83729000
Si        -0.39948510       1.39378330       2.77116280         1.52734000       1.56445000       1.34379000
Si        -1.19880470      -4.16508800      -3.61901690         0.72943000      -0.42027000       1.52589000
Si         2.05745270      -2.57274630      -0.86194410        -1.41747000       0.12568000       0.55090000
Si        -3.92662800      -4.79132240      -1.21397510         3.86872000      -3.21690000       2.22556000
Si        -5.26581950       4.43510030      -0.37356440         0.04285000      -0.48615000       1.62148000
Si         3.79624940      -4.06445000      -4.88354570        -1.84804000       0.18236000      -1.09851000
Si        -3.51724390      -3.46577340       1.27089160         0.39889000       0.06483000      -0.53824000
Si         1.00060640       1.61909190      -1.37717220        -2.11586000       1.50118000       1.26510000
Si        -3.60976180      -1.66311900       4.12548110         1.14228000      -0.08753000      -0.17495000
Si         4.88684170       0.42207710      -0.50621320        -1.18187000       0.57408000       0.42112000
Si        -2.13697210       3.40168640      -4.58171900        -0.20486000      -0.21653000       1.32032000
Si         3.27973340       3.04514790      -4.09058900        -2.29773000      -1.64645000      -1.43451000
Si         1.37707390       3.25345250       0.63140760         0.25478000       0.02140000      -0.62407000
Si        -1.07525820       0.95297770      -0.23914760         0.97937000      -1.00325000      -1.80235000
Si         4.54123900      -5.21488380      -2.11692310        -1.17392000       0.77203000      -0.05929000
Si        -2.99025050       5.35444110       3.84207720         0.67737000      -0.54240000       0.18155000
Si         2.76331570       3.03983280       4.23292940        -0.73264000       0.46661000       1.41467000
Si        -1.46059880      -2.57146940      -1.50065320        -0.45191000      -0.21691000      -1.13122000
Si        -5.10413950      -4.85726480      -4.93154550        -0.60511000      -2.49413000      -1.51016000
Si        -4.14036780       2.65012660      -3.19376380         1.43402000      -0.39072000      -1.26063000
Si        -3.68220900      -1.88094060      -2.91125490         0.80584000       1.35529000      -1.01876000
Si         3.61878770       5.34911510       3.87426260        -0.49250000       0.12109000      -0.20301000
Si        -2.76382860       2.41265970      -0.16224750         1.38879000       1.82028000       1.30365000
Si         4.30770120       0.88441600       1.95657460        -0.17712000      -0.01292000      -1.22667000
Si        -0.11631050      -3.13343120      -5.41529760         1.21761000       0.08806000       0.73417000
Si        -0.46225160      -0.03847190       4.91413760        -0.88555000       3.03710000      -4.20470000
Si         4.08523030      -2.56519380       1.62997320        -0.36605000       0.61863000      -0.33403000
Si        -0.91054410      -0.37122880       1.64250240        -0.57407000      -2.58991000      -0.90435000
Si         0.37755890      -2.11023280       3.34576310        -0.17532000       0.66562000       0.03601000
Si         2.57690450      -4.47096380       1.56441280         0.25530000       0.08852000       1.06920000
Si        -4.82542870       0.42418350      -3.63393630         0.12417000      -0.75670000      -0.84806000
Si        -1.68015570      -0.28462620      -2.46128160        -0.02428000      -0.61384000       0.40871000
Si        -5.34388730      -3.89666910       2.76716830         1.23095000      -0.01920000       0.58095000
Si         2.12485760       1.72180350       2.39734740        -0.33214000      -0.07530000      -0.21632000
Si         2.89803810       0.86055800      -2.17042350         1.88348000      -0.53306000      -0.02665000
Si        -2.01388400      -3.48660830       4.48749850        -2.63845000      -0.23164000      -0.93063000
Si        -3.06430190       0.45111930       5.32093520         0.18225000      -0.43726000      -0.29018000
Si         4.15817940      -1.74401350      -0.62645270         1.50019000      -1.00479000       0.40572000
Si         3.49667100       4.98666120       0.05300930        -1.42770000      -0.88321000      -0.01266000
Si        -0.20130870      -1.01914930      -4.24411630         0.17864000      -1.97510000       4.37911000
