8
Lattice="5.43 0.0 0.0 0.0 5.43 0.0 0.0 0.0 5.43" Properties=species:S:1:pos:R:3:forces:R:3 config_type=bulk energy=-43.299058508501645 virial="1.8510670369566076 1.2597480253022417e-14 -1.0829872432582353e-14 1.2597480253022417e-14 1.8510670369566127 -5.762201437649349e-15 -1.0829872432582353e-14 -5.762201437649349e-15 1.8510670369566142" label_model=mpa-0 structure_key=3759df0316ddd71631e9e11ec09dd52876c0db918ac7e5ff9005f8b846f2a3d8 pbc="T T T"
Si       0.00000000       0.00000000       0.00000000       0.00000000       0.00000000      -0.00000000
Si       1.35750000       1.35750000       1.35750000       0.00000000      -0.00000000      -0.00000000
Si       0.00000000       2.71500000       2.71500000      -0.00000000       0.00000000      -0.00000000
Si       1.35750000       4.07250000       4.07250000      -0.00000000      -0.00000000       0.00000000
Si       2.71500000       0.00000000       2.71500000       0.00000000       0.00000000       0.00000000
Si       4.07250000       1.35750000       4.07250000      -0.00000000       0.00000000       0.00000000
Si       2.71500000       2.71500000       0.00000000      -0.00000000      -0.00000000       0.00000000
Si       4.07250000       4.07250000       1.35750000       0.00000000      -0.00000000       0.00000000
32
Lattice="5.43 0.0 0.0 0.0 5.43 0.0 0.0 0.0 32.3625" Properties=species:S:1:pos:R:3:tags:I:1:forces:R:3 config_type=slab miller=100 energy=-166.00437401190226 label_model=mpa-0 structure_key=5ecfe9acdf359d74681b3510cdbf77d1635e0a0269523bdfcfaa13af6877a9b0 pbc="T T F"
Si       1.35750000       1.35750000       7.35750000        4      -0.00000000       0.00000000       0.13851832
Si       2.71500000       2.71500000       8.71500000        4       0.00000000       0.00000000      -0.05691469
Si       4.07250000       4.07250000       7.35750000        4      -0.00000000       0.00000000       0.13851832
Si       0.00000000       0.00000000       8.71500000        4       0.00000000      -0.00000000      -0.05691469
Si       1.35750000       4.07250000      10.07250000        4      -0.00000000      -0.00000000       0.00466641
Si       2.71500000       0.00000000       6.00000000        4       0.00000000      -0.00000000      -0.30844849
Si       4.07250000       1.35750000      10.07250000        4       0.00000000       0.00000000       0.00466641
Si       0.00000000       2.71500000       6.00000000        4      -0.00000000      -0.00000000      -0.30844849
Si       1.35750000       1.35750000      12.78750000        3      -0.00000000       0.00000000      -0.00419070
Si       2.71500000       2.71500000      14.14500000        3       0.00000000       0.00000000       0.00080848
Si       4.07250000       4.07250000      12.78750000        3      -0.00000000      -0.00000000      -0.00419070
Si       0.00000000       0.00000000      14.14500000        3      -0.00000000      -0.00000000       0.00080848
Si       1.35750000       4.07250000      15.50250000        3      -0.00000000       0.00000000      -0.00015860
Si       2.71500000       0.00000000      11.43000000        3       0.00000000      -0.00000000       0.05572861
Si       4.07250000       1.35750000      15.50250000        3       0.00000000      -0.00000000      -0.00015860
Si       0.00000000       2.71500000      11.43000000        3       0.00000000       0.00000000       0.05572861
Si       1.35750000       1.35750000      18.21750000        2      -0.00000000      -0.00000000      -0.00080848
Si       2.71500000       2.71500000      19.57500000        2       0.00000000       0.00000000       0.00419070
Si       4.07250000       4.07250000      18.21750000        2       0.00000000      -0.00000000      -0.00080848
Si       0.00000000       0.00000000      19.57500000        2      -0.00000000      -0.00000000       0.00419070
Si       1.35750000       4.07250000      20.93250000        2      -0.00000000      -0.00000000      -0.05572861
Si       2.71500000       0.00000000      16.86000000        2       0.00000000      -0.00000000       0.00015860
Si       4.07250000       1.35750000      20.93250000        2      -0.00000000      -0.00000000      -0.05572861
Si       0.00000000       2.71500000      16.86000000        2      -0.00000000       0.00000000       0.00015860
Si       1.35750000       1.35750000      23.64750000        1      -0.00000000      -0.00000000       0.05691469
Si       2.71500000       2.71500000      25.00500000        1       0.00000000       0.00000000      -0.13851832
Si       4.07250000       4.07250000      23.64750000        1      -0.00000000       0.00000000       0.05691469
Si       0.00000000       0.00000000      25.00500000        1       0.00000000      -0.00000000      -0.13851832
Si       1.35750000       4.07250000      26.36250000        1       0.00000000      -0.00000000       0.30844849
Si       2.71500000       0.00000000      22.29000000        1       0.00000000      -0.00000000      -0.00466641
Si       4.07250000       1.35750000      26.36250000        1      -0.00000000       0.00000000       0.30844849
Si       0.00000000       2.71500000      22.29000000        1      -0.00000000       0.00000000      -0.00466641
32
Lattice="7.679179643685906 0.0 0.0 0.0 5.43 0.0 0.0 0.0 25.438564376450337" Properties=species:S:1:pos:R:3:tags:I:1:forces:R:3 config_type=slab miller=110 energy=-166.21014501341605 label_model=mpa-0 structure_key=4401afcd4cd0ebf0491578797658bd8e3aeef8064cb3e5a313a45064fddd4dc6 pbc="T T F"
Si       7.67917964       4.07250000       7.91979491        4       0.00000000      -0.01541739      -0.14832501
Si       3.83958982       2.71500000       6.00000000        4       0.00000000      -0.29183413      -0.02073992
Si       1.91979491       1.35750000       6.00000000        4      -0.00000000       0.29183413      -0.02073992
Si       1.91979491       0.00000000       7.91979491        4      -0.00000000       0.01541739      -0.14832501
Si       5.75938473       1.35750000       6.00000000        4       0.00000000       0.29183413      -0.02073992
Si       5.75938473       0.00000000       7.91979491        4      -0.00000000       0.01541739      -0.14832501
Si       3.83958982       4.07250000       7.91979491        4      -0.00000000      -0.01541739      -0.14832501
Si       0.00000000       2.71500000       6.00000000        4      -0.00000000      -0.29183413      -0.02073992
Si       3.83958982       4.07250000      11.75938473        3       0.00000000      -0.01325452       0.00757068
Si       7.67917964       2.71500000       9.83958982        3       0.00000000       0.01662555       0.03015065
Si       5.75938473       1.35750000       9.83958982        3       0.00000000      -0.01662555       0.03015065
Si       5.75938473       0.00000000      11.75938473        3       0.00000000       0.01325452       0.00757068
Si       1.91979491       1.35750000       9.83958982        3       0.00000000      -0.01662555       0.03015065
Si       1.91979491       0.00000000      11.75938473        3      -0.00000000       0.01325452       0.00757068
Si       7.67917964       4.07250000      11.75938473        3      -0.00000000      -0.01325452       0.00757068
Si       3.83958982       2.71500000       9.83958982        3       0.00000000       0.01662555       0.03015065
Si       7.67917964       4.07250000      15.59897455        2      -0.00000000      -0.01662555      -0.03015065
Si       3.83958982       2.71500000      13.67917964        2      -0.00000000       0.01325452      -0.00757068
Si       1.91979491       1.35750000      13.67917964        2       0.00000000      -0.01325452      -0.00757068
Si       1.91979491       0.00000000      15.59897455        2      -0.00000000       0.01662555      -0.03015065
Si       5.75938473       1.35750000      13.67917964        2       0.00000000      -0.01325452      -0.00757068
Si       5.75938473       0.00000000      15.59897455        2      -0.00000000       0.01662555      -0.03015065
Si       3.83958982       4.07250000      15.59897455        2       0.00000000      -0.01662555      -0.03015065
Si       7.67917964       2.71500000      13.67917964        2       0.00000000       0.01325452      -0.00757068
Si       3.83958982       4.07250000      19.43856438        1      -0.00000000       0.29183413       0.02073992
Si       7.67917964       2.71500000      17.51876947        1       0.00000000       0.01541739       0.14832501
Si       5.75938473       1.35750000      17.51876947        1       0.00000000      -0.01541739       0.14832501
Si       5.75938473       0.00000000      19.43856438        1      -0.00000000      -0.29183413       0.02073992
Si       1.91979491       1.35750000      17.51876947        1      -0.00000000      -0.01541739       0.14832501
Si       1.91979491       0.00000000      19.43856438        1      -0.00000000      -0.29183413       0.02073992
Si       7.67917964       4.07250000      19.43856438        1       0.00000000       0.29183413       0.02073992
Si       3.83958982       2.71500000      17.51876947        1       0.00000000       0.01541739       0.14832501
32
Lattice="7.679179643685906 0.0 0.0 3.8395898218429525 6.650364651656329 0.0 0.0 0.0 22.18878887552392" Properties=species:S:1:pos:R:3:tags:I:1:forces:R:3 config_type=slab miller=111 energy=-165.92857097855816 label_model=mpa-0 structure_key=f29b6a4938afb9314ff45c979f8c7e2aba2f28e83032c705cbf3d07283ce323b pbc="T T F"
Si       3.83958982       6.65036465       6.78375299        4      -0.00000000       0.00000000      -0.11641392
Si       3.83958982       2.21678822       6.00000000        4       0.00000000      -0.00000000      -0.12372205
Si       1.91979491       3.32518233       6.78375299        4      -0.00000000      -0.00000000      -0.11641392
Si       5.75938473       5.54197054       6.00000000        4       0.00000000      -0.00000000      -0.12372205
Si       7.67917964       6.65036465       6.78375299        4       0.00000000       0.00000000      -0.11641392
Si       7.67917964       2.21678822       6.00000000        4       0.00000000       0.00000000      -0.12372205
Si       5.75938473       3.32518233       6.78375299        4       0.00000000      -0.00000000      -0.11641392
Si       9.59897455       5.54197054       6.00000000        4      -0.00000000       0.00000000      -0.12372205
Si       7.67917964       4.43357643       9.91876495        3      -0.00000000       0.00000000       0.01887835
Si       3.83958982       6.65036465       9.13501196        3       0.00000000      -0.00000000       0.05446287
Si       5.75938473       1.10839411       9.91876495        3      -0.00000000      -0.00000000       0.01887835
Si       1.91979491       3.32518233       9.13501196        3       0.00000000      -0.00000000       0.05446287
Si       3.83958982       4.43357643       9.91876495        3      -0.00000000      -0.00000000       0.01887835
Si       7.67917964       6.65036465       9.13501196        3      -0.00000000       0.00000000       0.05446287
Si       1.91979491       1.10839411       9.91876495        3      -0.00000000      -0.00000000       0.01887835
Si       5.75938473       3.32518233       9.13501196        3       0.00000000       0.00000000       0.05446287
Si       3.83958982       2.21678822      13.05377691        2      -0.00000000       0.00000000      -0.05446287
Si       7.67917964       4.43357643      12.27002392        2       0.00000000      -0.00000000      -0.01887835
Si       5.75938473       5.54197054      13.05377691        2      -0.00000000       0.00000000      -0.05446287
Si       5.75938473       1.10839411      12.27002392        2       0.00000000      -0.00000000      -0.01887835
Si       7.67917964       2.21678822      13.05377691        2      -0.00000000      -0.00000000      -0.05446287
Si       3.83958982       4.43357643      12.27002392        2       0.00000000      -0.00000000      -0.01887835
Si       9.59897455       5.54197054      13.05377691        2      -0.00000000       0.00000000      -0.05446287
Si       1.91979491       1.10839411      12.27002392        2       0.00000000       0.00000000      -0.01887835
Si       3.83958982       6.65036465      16.18878888        1       0.00000000       0.00000000       0.12372205
Si       3.83958982       2.21678822      15.40503589        1       0.00000000      -0.00000000       0.11641392
Si       1.91979491       3.32518233      16.18878888        1       0.00000000      -0.00000000       0.12372205
Si       5.75938473       5.54197054      15.40503589        1      -0.00000000      -0.00000000       0.11641392
Si       7.67917964       6.65036465      16.18878888        1      -0.00000000       0.00000000       0.12372205
Si       7.67917964       2.21678822      15.40503589        1      -0.00000000       0.00000000       0.11641392
Si       5.75938473       3.32518233      16.18878888        1       0.00000000       0.00000000       0.12372205
Si       9.59897455       5.54197054      15.40503589        1      -0.00000000      -0.00000000       0.11641392
32
Lattice="5.43 0.0 0.0 0.0 5.43 0.0 0.0 0.0 36.3625" Properties=species:S:1:pos:R:3:tags:I:1:forces:R:3 config_type=slab miller=100 energy=-166.00437401190226 label_model=mpa-0 structure_key=617368cf53ccf0349e8281fa7456bdd92453ef207fcaf0767243d33fe844a3c7 pbc="T T F"
Si       1.35750000       1.35750000       9.35750000        4      -0.00000000       0.00000000       0.13851832
Si       2.71500000       2.71500000      10.71500000        4       0.00000000       0.00000000      -0.05691469
Si       4.07250000       4.07250000       9.35750000        4       0.00000000      -0.00000000       0.13851832
Si       0.00000000       0.00000000      10.71500000        4      -0.00000000      -0.00000000      -0.05691469
Si       1.35750000       4.07250000      12.07250000        4      -0.00000000       0.00000000       0.00466641
Si       2.71500000       0.00000000       8.00000000        4       0.00000000      -0.00000000      -0.30844849
Si       4.07250000       1.35750000      12.07250000        4      -0.00000000      -0.00000000       0.00466641
Si       0.00000000       2.71500000       8.00000000        4      -0.00000000       0.00000000      -0.30844849
Si       1.35750000       1.35750000      14.78750000        3      -0.00000000      -0.00000000      -0.00419070
Si       2.71500000       2.71500000      16.14500000        3       0.00000000       0.00000000       0.00080848
Si       4.07250000       4.07250000      14.78750000        3      -0.00000000      -0.00000000      -0.00419070
Si       0.00000000       0.00000000      16.14500000        3       0.00000000      -0.00000000       0.00080848
Si       1.35750000       4.07250000      17.50250000        3      -0.00000000      -0.00000000      -0.00015860
Si       2.71500000       0.00000000      13.43000000        3       0.00000000      -0.00000000       0.05572861
Si       4.07250000       1.35750000      17.50250000        3      -0.00000000      -0.00000000      -0.00015860
Si       0.00000000       2.71500000      13.43000000        3      -0.00000000       0.00000000       0.05572861
Si       1.35750000       1.35750000      20.21750000        2      -0.00000000      -0.00000000      -0.00080848
Si       2.71500000       2.71500000      21.57500000        2       0.00000000       0.00000000       0.00419070
Si       4.07250000       4.07250000      20.21750000        2       0.00000000      -0.00000000      -0.00080848
Si       0.00000000       0.00000000      21.57500000        2      -0.00000000      -0.00000000       0.00419070
Si       1.35750000       4.07250000      22.93250000        2      -0.00000000      -0.00000000      -0.05572861
Si       2.71500000       0.00000000      18.86000000        2       0.00000000      -0.00000000       0.00015860
Si       4.07250000       1.35750000      22.93250000        2      -0.00000000      -0.00000000      -0.05572861
Si       0.00000000       2.71500000      18.86000000        2      -0.00000000       0.00000000       0.00015860
Si       1.35750000       1.35750000      25.64750000        1      -0.00000000      -0.00000000       0.05691469
Si       2.71500000       2.71500000      27.00500000        1       0.00000000       0.00000000      -0.13851832
Si       4.07250000       4.07250000      25.64750000        1      -0.00000000       0.00000000       0.05691469
Si       0.00000000       0.00000000      27.00500000        1      -0.00000000      -0.00000000      -0.13851832
Si       1.35750000       4.07250000      28.36250000        1      -0.00000000       0.00000000       0.30844849
Si       2.71500000       0.00000000      24.29000000        1       0.00000000      -0.00000000      -0.00466641
Si       4.07250000       1.35750000      28.36250000        1       0.00000000      -0.00000000       0.30844849
Si       0.00000000       2.71500000      24.29000000        1      -0.00000000       0.00000000      -0.00466641
32
Lattice="7.679179643685906 0.0 0.0 0.0 5.43 0.0 0.0 0.0 29.438564376450337" Properties=species:S:1:pos:R:3:tags:I:1:forces:R:3 config_type=slab miller=110 energy=-166.21014501341608 label_model=mpa-0 structure_key=8f39af8a26e238882876daf9793a97778ab54c75cea2058015b57c01c4616aee pbc="T T F"
Si       7.67917964       4.07250000       9.91979491        4       0.00000000      -0.01541739      -0.14832501
Si       3.83958982       2.71500000       8.00000000        4      -0.00000000      -0.29183413      -0.02073992
Si       1.91979491       1.35750000       8.00000000        4       0.00000000       0.29183413      -0.02073992
Si       1.91979491       0.00000000       9.91979491        4      -0.00000000       0.01541739      -0.14832501
Si       5.75938473       1.35750000       8.00000000        4       0.00000000       0.29183413      -0.02073992
Si       5.75938473       0.00000000       9.91979491        4      -0.00000000       0.01541739      -0.14832501
Si       3.83958982       4.07250000       9.91979491        4      -0.00000000      -0.01541739      -0.14832501
Si       0.00000000       2.71500000       8.00000000        4      -0.00000000      -0.29183413      -0.02073992
Si       3.83958982       4.07250000      13.75938473        3      -0.00000000      -0.01325452       0.00757068
Si       7.67917964       2.71500000      11.83958982        3      -0.00000000       0.01662555       0.03015065
Si       5.75938473       1.35750000      11.83958982        3       0.00000000      -0.01662555       0.03015065
Si       5.75938473       0.00000000      13.75938473        3       0.00000000       0.01325452       0.00757068
Si       1.91979491       1.35750000      11.83958982        3       0.00000000      -0.01662555       0.03015065
Si       1.91979491       0.00000000      13.75938473        3      -0.00000000       0.01325452       0.00757068
Si       7.67917964       4.07250000      13.75938473        3      -0.00000000      -0.01325452       0.00757068
Si       3.83958982       2.71500000      11.83958982        3       0.00000000       0.01662555       0.03015065
Si       7.67917964       4.07250000      17.59897455        2      -0.00000000      -0.01662555      -0.03015065
Si       3.83958982       2.71500000      15.67917964        2      -0.00000000       0.01325452      -0.00757068
Si       1.91979491       1.35750000      15.67917964        2       0.00000000      -0.01325452      -0.00757068
Si       1.91979491       0.00000000      17.59897455        2      -0.00000000       0.01662555      -0.03015065
Si       5.75938473       1.35750000      15.67917964        2       0.00000000      -0.01325452      -0.00757068
Si       5.75938473       0.00000000      17.59897455        2      -0.00000000       0.01662555      -0.03015065
Si       3.83958982       4.07250000      17.59897455        2       0.00000000      -0.01662555      -0.03015065
Si       7.67917964       2.71500000      15.67917964        2       0.00000000       0.01325452      -0.00757068
Si       3.83958982       4.07250000      21.43856438        1      -0.00000000       0.29183413       0.02073992
Si       7.67917964       2.71500000      19.51876947        1       0.00000000       0.01541739       0.14832501
Si       5.75938473       1.35750000      19.51876947        1       0.00000000      -0.01541739       0.14832501
Si       5.75938473       0.00000000      21.43856438        1      -0.00000000      -0.29183413       0.02073992
Si       1.91979491       1.35750000      19.51876947        1      -0.00000000      -0.01541739       0.14832501
Si       1.91979491       0.00000000      21.43856438        1      -0.00000000      -0.29183413       0.02073992
Si       7.67917964       4.07250000      21.43856438        1       0.00000000       0.29183413       0.02073992
Si       3.83958982       2.71500000      19.51876947        1      -0.00000000       0.01541739       0.14832501
32
Lattice="7.679179643685906 0.0 0.0 3.8395898218429525 6.650364651656329 0.0 0.0 0.0 26.18878887552392" Properties=species:S:1:pos:R:3:tags:I:1:forces:R:3 config_type=slab miller=111 energy=-165.92857097855816 label_model=mpa-0 structure_key=1deaaff8a4d6c72976baa66100c9f401c71ab67bb8e16a26b31fe2be4d31e983 pbc="T T F"
Si       3.83958982       6.65036465       8.78375299        4      -0.00000000       0.00000000      -0.11641392
Si       3.83958982       2.21678822       8.00000000        4       0.00000000      -0.00000000      -0.12372205
Si       1.91979491       3.32518233       8.78375299        4      -0.00000000       0.00000000      -0.11641392
Si       5.75938473       5.54197054       8.00000000        4       0.00000000      -0.00000000      -0.12372205
Si       7.67917964       6.65036465       8.78375299        4       0.00000000      -0.00000000      -0.11641392
Si       7.67917964       2.21678822       8.00000000        4       0.00000000       0.00000000      -0.12372205
Si       5.75938473       3.32518233       8.78375299        4      -0.00000000      -0.00000000      -0.11641392
Si       9.59897455       5.54197054       8.00000000        4      -0.00000000       0.00000000      -0.12372205
Si       7.67917964       4.43357643      11.91876495        3      -0.00000000       0.00000000       0.01887835
Si       3.83958982       6.65036465      11.13501196        3       0.00000000      -0.00000000       0.05446287
Si       5.75938473       1.10839411      11.91876495        3      -0.00000000       0.00000000       0.01887835
Si       1.91979491       3.32518233      11.13501196        3       0.00000000      -0.00000000       0.05446287
Si       3.83958982       4.43357643      11.91876495        3       0.00000000      -0.00000000       0.01887835
Si       7.67917964       6.65036465      11.13501196        3      -0.00000000       0.00000000       0.05446287
Si       1.91979491       1.10839411      11.91876495        3      -0.00000000      -0.00000000       0.01887835
Si       5.75938473       3.32518233      11.13501196        3       0.00000000       0.00000000       0.05446287
Si       3.83958982       2.21678822      15.05377691        2      -0.00000000       0.00000000      -0.05446287
Si       7.67917964       4.43357643      14.27002392        2       0.00000000       0.00000000      -0.01887835
Si       5.75938473       5.54197054      15.05377691        2      -0.00000000      -0.00000000      -0.05446287
Si       5.75938473       1.10839411      14.27002392        2       0.00000000      -0.00000000      -0.01887835
Si       7.67917964       2.21678822      15.05377691        2      -0.00000000      -0.00000000      -0.05446287
Si       3.83958982       4.43357643      14.27002392        2       0.00000000      -0.00000000      -0.01887835
Si       9.59897455       5.54197054      15.05377691        2      -0.00000000       0.00000000      -0.05446287
Si       1.91979491       1.10839411      14.27002392        2       0.00000000       0.00000000      -0.01887835
Si       3.83958982       6.65036465      18.18878888        1       0.00000000      -0.00000000       0.12372205
Si       3.83958982       2.21678822      17.40503589        1       0.00000000      -0.00000000       0.11641392
Si       1.91979491       3.32518233      18.18878888        1       0.00000000       0.00000000       0.12372205
Si       5.75938473       5.54197054      17.40503589        1      -0.00000000      -0.00000000       0.11641392
Si       7.67917964       6.65036465      18.18878888        1       0.00000000       0.00000000       0.12372205
Si       7.67917964       2.21678822      17.40503589        1      -0.00000000      -0.00000000       0.11641392
Si       5.75938473       3.32518233      18.18878888        1       0.00000000       0.00000000       0.12372205
Si       9.59897455       5.54197054      17.40503589        1      -0.00000000       0.00000000       0.11641392
32
Lattice="5.43 0.0 0.0 0.0 5.43 0.0 0.0 0.0 40.3625" Properties=species:S:1:pos:R:3:tags:I:1:forces:R:3 config_type=slab miller=100 energy=-166.00437401190223 label_model=mpa-0 structure_key=070b9c38c0395825921612661e017f15c73317d09538a18155be158706f7a0c2 pbc="T T F"
Si       1.35750000       1.35750000      11.35750000        4      -0.00000000      -0.00000000       0.13851832
Si       2.71500000       2.71500000      12.71500000        4       0.00000000       0.00000000      -0.05691469
Si       4.07250000       4.07250000      11.35750000        4       0.00000000       0.00000000       0.13851832
Si       0.00000000       0.00000000      12.71500000        4      -0.00000000      -0.00000000      -0.05691469
Si       1.35750000       4.07250000      14.07250000        4      -0.00000000       0.00000000       0.00466641
Si       2.71500000       0.00000000      10.00000000        4       0.00000000      -0.00000000      -0.30844849
Si       4.07250000       1.35750000      14.07250000        4      -0.00000000      -0.00000000       0.00466641
Si       0.00000000       2.71500000      10.00000000        4      -0.00000000       0.00000000      -0.30844849
Si       1.35750000       1.35750000      16.78750000        3      -0.00000000      -0.00000000      -0.00419070
Si       2.71500000       2.71500000      18.14500000        3       0.00000000       0.00000000       0.00080848
Si       4.07250000       4.07250000      16.78750000        3      -0.00000000       0.00000000      -0.00419070
Si       0.00000000       0.00000000      18.14500000        3      -0.00000000      -0.00000000       0.00080848
Si       1.35750000       4.07250000      19.50250000        3      -0.00000000      -0.00000000      -0.00015860
Si       2.71500000       0.00000000      15.43000000        3       0.00000000      -0.00000000       0.05572861
Si       4.07250000       1.35750000      19.50250000        3      -0.00000000      -0.00000000      -0.00015860
Si       0.00000000       2.71500000      15.43000000        3      -0.00000000       0.00000000       0.05572861
Si       1.35750000       1.35750000      22.21750000        2      -0.00000000      -0.00000000      -0.00080848
Si       2.71500000       2.71500000      23.57500000        2       0.00000000       0.00000000       0.00419070
Si       4.07250000       4.07250000      22.21750000        2       0.00000000      -0.00000000      -0.00080848
Si       0.00000000       0.00000000      23.57500000        2      -0.00000000      -0.00000000       0.00419070
Si       1.35750000       4.07250000      24.93250000        2      -0.00000000      -0.00000000      -0.05572861
Si       2.71500000       0.00000000      20.86000000        2       0.00000000       0.00000000       0.00015860
Si       4.07250000       1.35750000      24.93250000        2      -0.00000000      -0.00000000      -0.05572861
Si       0.00000000       2.71500000      20.86000000        2      -0.00000000       0.00000000       0.00015860
Si       1.35750000       1.35750000      27.64750000        1      -0.00000000      -0.00000000       0.05691469
Si       2.71500000       2.71500000      29.00500000        1       0.00000000       0.00000000      -0.13851832
Si       4.07250000       4.07250000      27.64750000        1       0.00000000       0.00000000       0.05691469
Si       0.00000000       0.00000000      29.00500000        1      -0.00000000      -0.00000000      -0.13851832
Si       1.35750000       4.07250000      30.36250000        1       0.00000000      -0.00000000       0.30844849
Si       2.71500000       0.00000000      26.29000000        1       0.00000000       0.00000000      -0.00466641
Si       4.07250000       1.35750000      30.36250000        1      -0.00000000       0.00000000       0.30844849
Si       0.00000000       2.71500000      26.29000000        1       0.00000000       0.00000000      -0.00466641
32
Lattice="7.679179643685906 0.0 0.0 0.0 5.43 0.0 0.0 0.0 33.43856437645034" Properties=species:S:1:pos:R:3:tags:I:1:forces:R:3 config_type=slab miller=110 energy=-166.21014501341608 label_model=mpa-0 structure_key=8e9550dfe2b488959715c8264241b5c9d5d19b924a348bf4138ce4fe291cfb88 pbc="T T F"
Si       7.67917964       4.07250000      11.91979491        4       0.00000000      -0.01541739      -0.14832501
Si       3.83958982       2.71500000      10.00000000        4      -0.00000000      -0.29183413      -0.02073992
Si       1.91979491       1.35750000      10.00000000        4       0.00000000       0.29183413      -0.02073992
Si       1.91979491       0.00000000      11.91979491        4      -0.00000000       0.01541739      -0.14832501
Si       5.75938473       1.35750000      10.00000000        4       0.00000000       0.29183413      -0.02073992
Si       5.75938473       0.00000000      11.91979491        4      -0.00000000       0.01541739      -0.14832501
Si       3.83958982       4.07250000      11.91979491        4      -0.00000000      -0.01541739      -0.14832501
Si       0.00000000       2.71500000      10.00000000        4      -0.00000000      -0.29183413      -0.02073992
Si       3.83958982       4.07250000      15.75938473        3      -0.00000000      -0.01325452       0.00757068
Si       7.67917964       2.71500000      13.83958982        3      -0.00000000       0.01662555       0.03015065
Si       5.75938473       1.35750000      13.83958982        3       0.00000000      -0.01662555       0.03015065
Si       5.75938473       0.00000000      15.75938473        3       0.00000000       0.01325452       0.00757068
Si       1.91979491       1.35750000      13.83958982        3       0.00000000      -0.01662555       0.03015065
Si       1.91979491       0.00000000      15.75938473        3      -0.00000000       0.01325452       0.00757068
Si       7.67917964       4.07250000      15.75938473        3      -0.00000000      -0.01325452       0.00757068
Si       3.83958982       2.71500000      13.83958982        3       0.00000000       0.01662555       0.03015065
Si       7.67917964       4.07250000      19.59897455        2      -0.00000000      -0.01662555      -0.03015065
Si       3.83958982       2.71500000      17.67917964        2      -0.00000000       0.01325452      -0.00757068
Si       1.91979491       1.35750000      17.67917964        2       0.00000000      -0.01325452      -0.00757068
Si       1.91979491       0.00000000      19.59897455        2      -0.00000000       0.01662555      -0.03015065
Si       5.75938473       1.35750000      17.67917964        2       0.00000000      -0.01325452      -0.00757068
Si       5.75938473       0.00000000      19.59897455        2      -0.00000000       0.01662555      -0.03015065
Si       3.83958982       4.07250000      19.59897455        2       0.00000000      -0.01662555      -0.03015065
Si       7.67917964       2.71500000      17.67917964        2       0.00000000       0.01325452      -0.00757068
Si       3.83958982       4.07250000      23.43856438        1      -0.00000000       0.29183413       0.02073992
Si       7.67917964       2.71500000      21.51876947        1       0.00000000       0.01541739       0.14832501
Si       5.75938473       1.35750000      21.51876947        1       0.00000000      -0.01541739       0.14832501
Si       5.75938473       0.00000000      23.43856438        1      -0.00000000      -0.29183413       0.02073992
Si       1.91979491       1.35750000      21.51876947        1      -0.00000000      -0.01541739       0.14832501
Si       1.91979491       0.00000000      23.43856438        1      -0.00000000      -0.29183413       0.02073992
Si       7.67917964       4.07250000      23.43856438        1       0.00000000       0.29183413       0.02073992
Si       3.83958982       2.71500000      21.51876947        1      -0.00000000       0.01541739       0.14832501
32
Lattice="7.679179643685906 0.0 0.0 3.8395898218429525 6.650364651656329 0.0 0.0 0.0 30.18878887552392" Properties=species:S:1:pos:R:3:tags:I:1:forces:R:3 config_type=slab miller=111 energy=-165.9285709785581 label_model=mpa-0 structure_key=60f95a0353e6a2daed14c65bab41ad886c53b74f41fc41665f1329f2343af250 pbc="T T F"
Si       3.83958982       6.65036465      10.78375299        4      -0.00000000       0.00000000      -0.11641392
Si       3.83958982       2.21678822      10.00000000        4       0.00000000      -0.00000000      -0.12372205
Si       1.91979491       3.32518233      10.78375299        4      -0.00000000       0.00000000      -0.11641392
Si       5.75938473       5.54197054      10.00000000        4       0.00000000      -0.00000000      -0.12372205
Si       7.67917964       6.65036465      10.78375299        4      -0.00000000      -0.00000000      -0.11641392
Si       7.67917964       2.21678822      10.00000000        4       0.00000000       0.00000000      -0.12372205
Si       5.75938473       3.32518233      10.78375299        4      -0.00000000      -0.00000000      -0.11641392
Si       9.59897455       5.54197054      10.00000000        4       0.00000000       0.00000000      -0.12372205
Si       7.67917964       4.43357643      13.91876495        3      -0.00000000       0.00000000       0.01887835
Si       3.83958982       6.65036465      13.13501196        3       0.00000000      -0.00000000       0.05446287
Si       5.75938473       1.10839411      13.91876495        3      -0.00000000       0.00000000       0.01887835
Si       1.91979491       3.32518233      13.13501196        3       0.00000000      -0.00000000       0.05446287
Si       3.83958982       4.43357643      13.91876495        3       0.00000000      -0.00000000       0.01887835
Si       7.67917964       6.65036465      13.13501196        3      -0.00000000       0.00000000       0.05446287
Si       1.91979491       1.10839411      13.91876495        3      -0.00000000      -0.00000000       0.01887835
Si       5.75938473       3.32518233      13.13501196        3       0.00000000       0.00000000       0.05446287
Si       3.83958982       2.21678822      17.05377691        2      -0.00000000       0.00000000      -0.05446287
Si       7.67917964       4.43357643      16.27002392        2       0.00000000       0.00000000      -0.01887835
Si       5.75938473       5.54197054      17.05377691        2      -0.00000000       0.00000000      -0.05446287
Si       5.75938473       1.10839411      16.27002392        2       0.00000000      -0.00000000      -0.01887835
Si       7.67917964       2.21678822      17.05377691        2       0.00000000      -0.00000000      -0.05446287
Si       3.83958982       4.43357643      16.27002392        2       0.00000000       0.00000000      -0.01887835
Si       9.59897455       5.54197054      17.05377691        2      -0.00000000      -0.00000000      -0.05446287
Si       1.91979491       1.10839411      16.27002392        2       0.00000000       0.00000000      -0.01887835
Si       3.83958982       6.65036465      20.18878888        1      -0.00000000      -0.00000000       0.12372205
Si       3.83958982       2.21678822      19.40503589        1       0.00000000      -0.00000000       0.11641392
Si       1.91979491       3.32518233      20.18878888        1      -0.00000000       0.00000000       0.12372205
Si       5.75938473       5.54197054      19.40503589        1      -0.00000000      -0.00000000       0.11641392
Si       7.67917964       6.65036465      20.18878888        1       0.00000000       0.00000000       0.12372205
Si       7.67917964       2.21678822      19.40503589        1      -0.00000000      -0.00000000       0.11641392
Si       5.75938473       3.32518233      20.18878888        1      -0.00000000       0.00000000       0.12372205
Si       9.59897455       5.54197054      19.40503589        1      -0.00000000       0.00000000       0.11641392
32
Lattice="5.43 0.0 0.0 0.0 5.43 0.0 0.0 0.0 44.3625" Properties=species:S:1:pos:R:3:tags:I:1:forces:R:3 config_type=slab miller=100 energy=-166.00437401190223 label_model=mpa-0 structure_key=f5e6c6a3d62a48338c76f81ce5c65105c0910d9cf4e5a6b4a61baa5b4f9a0651 pbc="T T F"
Si       1.35750000       1.35750000      13.35750000        4      -0.00000000      -0.00000000       0.13851832
Si       2.71500000       2.71500000      14.71500000        4       0.00000000       0.00000000      -0.05691469
Si       4.07250000       4.07250000      13.35750000        4      -0.00000000       0.00000000       0.13851832
Si       0.00000000       0.00000000      14.71500000        4       0.00000000       0.00000000      -0.05691469
Si       1.35750000       4.07250000      16.07250000        4      -0.00000000      -0.00000000       0.00466641
Si       2.71500000       0.00000000      12.00000000        4       0.00000000      -0.00000000      -0.30844849
Si       4.07250000       1.35750000      16.07250000        4      -0.00000000      -0.00000000       0.00466641
Si       0.00000000       2.71500000      12.00000000        4      -0.00000000       0.00000000      -0.30844849
Si       1.35750000       1.35750000      18.78750000        3      -0.00000000      -0.00000000      -0.00419070
Si       2.71500000       2.71500000      20.14500000        3       0.00000000       0.00000000       0.00080848
Si       4.07250000       4.07250000      18.78750000        3      -0.00000000      -0.00000000      -0.00419070
Si       0.00000000       0.00000000      20.14500000        3       0.00000000      -0.00000000       0.00080848
Si       1.35750000       4.07250000      21.50250000        3      -0.00000000      -0.00000000      -0.00015860
Si       2.71500000       0.00000000      17.43000000        3       0.00000000      -0.00000000       0.05572861
Si       4.07250000       1.35750000      21.50250000        3      -0.00000000      -0.00000000      -0.00015860
Si       0.00000000       2.71500000      17.43000000        3       0.00000000       0.00000000       0.05572861
Si       1.35750000       1.35750000      24.21750000        2      -0.00000000      -0.00000000      -0.00080848
Si       2.71500000       2.71500000      25.57500000        2       0.00000000       0.00000000       0.00419070
Si       4.07250000       4.07250000      24.21750000        2       0.00000000      -0.00000000      -0.00080848
Si       0.00000000       0.00000000      25.57500000        2       0.00000000      -0.00000000       0.00419070
Si       1.35750000       4.07250000      26.93250000        2      -0.00000000      -0.00000000      -0.05572861
Si       2.71500000       0.00000000      22.86000000        2       0.00000000      -0.00000000       0.00015860
Si       4.07250000       1.35750000      26.93250000        2      -0.00000000      -0.00000000      -0.05572861
Si       0.00000000       2.71500000      22.86000000        2      -0.00000000       0.00000000       0.00015860
Si       1.35750000       1.35750000      29.64750000        1      -0.00000000      -0.00000000       0.05691469
Si       2.71500000       2.71500000      31.00500000        1       0.00000000       0.00000000      -0.13851832
Si       4.07250000       4.07250000      29.64750000        1      -0.00000000       0.00000000       0.05691469
Si       0.00000000       0.00000000      31.00500000        1      -0.00000000      -0.00000000      -0.13851832
Si       1.35750000       4.07250000      32.36250000        1      -0.00000000       0.00000000       0.30844849
Si       2.71500000       0.00000000      28.29000000        1       0.00000000      -0.00000000      -0.00466641
Si       4.07250000       1.35750000      32.36250000        1      -0.00000000      -0.00000000       0.30844849
Si       0.00000000       2.71500000      28.29000000        1       0.00000000       0.00000000      -0.00466641
32
Lattice="7.679179643685906 0.0 0.0 0.0 5.43 0.0 0.0 0.0 37.43856437645034" Properties=species:S:1:pos:R:3:tags:I:1:forces:R:3 config_type=slab miller=110 energy=-166.21014501341608 label_model=mpa-0 structure_key=888002cfdb59e2af19cdcdd073de5e762127446a06c3e06360ec91c131e4ab5a pbc="T T F"
Si       7.67917964       4.07250000      13.91979491        4       0.00000000      -0.01541739      -0.14832501
Si       3.83958982       2.71500000      12.00000000        4      -0.00000000      -0.29183413      -0.02073992
Si       1.91979491       1.35750000      12.00000000        4      -0.00000000       0.29183413      -0.02073992
Si       1.91979491       0.00000000      13.91979491        4       0.00000000       0.01541739      -0.14832501
Si       5.75938473       1.35750000      12.00000000        4       0.00000000       0.29183413      -0.02073992
Si       5.75938473       0.00000000      13.91979491        4      -0.00000000       0.01541739      -0.14832501
Si       3.83958982       4.07250000      13.91979491        4      -0.00000000      -0.01541739      -0.14832501
Si       0.00000000       2.71500000      12.00000000        4       0.00000000      -0.29183413      -0.02073992
Si       3.83958982       4.07250000      17.75938473        3       0.00000000      -0.01325452       0.00757068
Si       7.67917964       2.71500000      15.83958982        3      -0.00000000       0.01662555       0.03015065
Si       5.75938473       1.35750000      15.83958982        3       0.00000000      -0.01662555       0.03015065
Si       5.75938473       0.00000000      17.75938473        3      -0.00000000       0.01325452       0.00757068
Si       1.91979491       1.35750000      15.83958982        3       0.00000000      -0.01662555       0.03015065
Si       1.91979491       0.00000000      17.75938473        3      -0.00000000       0.01325452       0.00757068
Si       7.67917964       4.07250000      17.75938473        3      -0.00000000      -0.01325452       0.00757068
Si       3.83958982       2.71500000      15.83958982        3      -0.00000000       0.01662555       0.03015065
Si       7.67917964       4.07250000      21.59897455        2      -0.00000000      -0.01662555      -0.03015065
Si       3.83958982       2.71500000      19.67917964        2      -0.00000000       0.01325452      -0.00757068
Si       1.91979491       1.35750000      19.67917964        2       0.00000000      -0.01325452      -0.00757068
Si       1.91979491       0.00000000      21.59897455        2       0.00000000       0.01662555      -0.03015065
Si       5.75938473       1.35750000      19.67917964        2       0.00000000      -0.01325452      -0.00757068
Si       5.75938473       0.00000000      21.59897455        2      -0.00000000       0.01662555      -0.03015065
Si       3.83958982       4.07250000      21.59897455        2       0.00000000      -0.01662555      -0.03015065
Si       7.67917964       2.71500000      19.67917964        2       0.00000000       0.01325452      -0.00757068
Si       3.83958982       4.07250000      25.43856438        1      -0.00000000       0.29183413       0.02073992
Si       7.67917964       2.71500000      23.51876947        1       0.00000000       0.01541739       0.14832501
Si       5.75938473       1.35750000      23.51876947        1       0.00000000      -0.01541739       0.14832501
Si       5.75938473       0.00000000      25.43856438        1      -0.00000000      -0.29183413       0.02073992
Si       1.91979491       1.35750000      23.51876947        1      -0.00000000      -0.01541739       0.14832501
Si       1.91979491       0.00000000      25.43856438        1      -0.00000000      -0.29183413       0.02073992
Si       7.67917964       4.07250000      25.43856438        1       0.00000000       0.29183413       0.02073992
Si       3.83958982       2.71500000      23.51876947        1      -0.00000000       0.01541739       0.14832501
32
Lattice="7.679179643685906 0.0 0.0 3.8395898218429525 6.650364651656329 0.0 0.0 0.0 34.18878887552392" Properties=species:S:1:pos:R:3:tags:I:1:forces:R:3 config_type=slab miller=111 energy=-165.9285709785581 label_model=mpa-0 structure_key=010012b76a8250bfcf467f63a6bbb66e84111121eb8764a10f0dc63c4a066a4e pbc="T T F"
Si       3.83958982       6.65036465      12.78375299        4      -0.00000000       0.00000000      -0.11641392
Si       3.83958982       2.21678822      12.00000000        4       0.00000000      -0.00000000      -0.12372205
Si       1.91979491       3.32518233      12.78375299        4      -0.00000000       0.00000000      -0.11641392
Si       5.75938473       5.54197054      12.00000000        4       0.00000000       0.00000000      -0.12372205
Si       7.67917964       6.65036465      12.78375299        4       0.00000000      -0.00000000      -0.11641392
Si       7.67917964       2.21678822      12.00000000        4       0.00000000       0.00000000      -0.12372205
Si       5.75938473       3.32518233      12.78375299        4      -0.00000000      -0.00000000      -0.11641392
Si       9.59897455       5.54197054      12.00000000        4      -0.00000000       0.00000000      -0.12372205
Si       7.67917964       4.43357643      15.91876495        3      -0.00000000       0.00000000       0.01887835
Si       3.83958982       6.65036465      15.13501196        3       0.00000000      -0.00000000       0.05446287
Si       5.75938473       1.10839411      15.91876495        3      -0.00000000       0.00000000       0.01887835
Si       1.91979491       3.32518233      15.13501196        3       0.00000000      -0.00000000       0.05446287
Si       3.83958982       4.43357643      15.91876495        3       0.00000000      -0.00000000       0.01887835
Si       7.67917964       6.65036465      15.13501196        3      -0.00000000       0.00000000       0.05446287
Si       1.91979491       1.10839411      15.91876495        3      -0.00000000      -0.00000000       0.01887835
Si       5.75938473       3.32518233      15.13501196        3       0.00000000       0.00000000       0.05446287
Si       3.83958982       2.21678822      19.05377691        2      -0.00000000       0.00000000      -0.05446287
Si       7.67917964       4.43357643      18.27002392        2       0.00000000      -0.00000000      -0.01887835
Si       5.75938473       5.54197054      19.05377691        2      -0.00000000       0.00000000      -0.05446287
Si       5.75938473       1.10839411      18.27002392        2       0.00000000      -0.00000000      -0.01887835
Si       7.67917964       2.21678822      19.05377691        2       0.00000000      -0.00000000      -0.05446287
Si       3.83958982       4.43357643      18.27002392        2       0.00000000       0.00000000      -0.01887835
Si       9.59897455       5.54197054      19.05377691        2      -0.00000000      -0.00000000      -0.05446287
Si       1.91979491       1.10839411      18.27002392        2       0.00000000       0.00000000      -0.01887835
Si       3.83958982       6.65036465      22.18878888        1       0.00000000      -0.00000000       0.12372205
Si       3.83958982       2.21678822      21.40503589        1       0.00000000      -0.00000000       0.11641392
Si       1.91979491       3.32518233      22.18878888        1       0.00000000       0.00000000       0.12372205
Si       5.75938473       5.54197054      21.40503589        1      -0.00000000      -0.00000000       0.11641392
Si       7.67917964       6.65036465      22.18878888        1       0.00000000       0.00000000       0.12372205
Si       7.67917964       2.21678822      21.40503589        1      -0.00000000      -0.00000000       0.11641392
Si       5.75938473       3.32518233      22.18878888        1       0.00000000       0.00000000       0.12372205
Si       9.59897455       5.54197054      21.40503589        1      -0.00000000       0.00000000       0.11641392
48
Lattice="5.43 0.0 0.0 0.0 5.43 0.0 0.0 0.0 43.2225" Properties=species:S:1:pos:R:3:tags:I:1:forces:R:3 config_type=slab miller=100 energy=-252.60249102890543 label_model=mpa-0 structure_key=0416f1e92fbeeaf739f374c2b973c0f279f8f298342751c6aaa5860b40b589d3 pbc="T T F"
Si       1.35750000       1.35750000       7.35750000        6      -0.00000000       0.00000000       0.13851801
Si       2.71500000       2.71500000       8.71500000        6       0.00000000       0.00000000      -0.05691596
Si       4.07250000       4.07250000       7.35750000        6      -0.00000000       0.00000000       0.13851801
Si       0.00000000       0.00000000       8.71500000        6       0.00000000       0.00000000      -0.05691596
Si       1.35750000       4.07250000      10.07250000        6      -0.00000000       0.00000000       0.00466394
Si       2.71500000       0.00000000       6.00000000        6       0.00000000      -0.00000000      -0.30844850
Si       4.07250000       1.35750000      10.07250000        6      -0.00000000       0.00000000       0.00466394
Si       0.00000000       2.71500000       6.00000000        6      -0.00000000      -0.00000000      -0.30844850
Si       1.35750000       1.35750000      12.78750000        5      -0.00000000      -0.00000000      -0.00417746
Si       2.71500000       2.71500000      14.14500000        5       0.00000000       0.00000000       0.00062312
Si       4.07250000       4.07250000      12.78750000        5      -0.00000000      -0.00000000      -0.00417746
Si       0.00000000       0.00000000      14.14500000        5      -0.00000000       0.00000000       0.00062312
Si       1.35750000       4.07250000      15.50250000        5      -0.00000000      -0.00000000      -0.00027168
Si       2.71500000       0.00000000      11.43000000        5       0.00000000      -0.00000000       0.05578913
Si       4.07250000       1.35750000      15.50250000        5       0.00000000      -0.00000000      -0.00027168
Si       0.00000000       2.71500000      11.43000000        5       0.00000000       0.00000000       0.05578913
Si       1.35750000       1.35750000      18.21750000        4      -0.00000000      -0.00000000      -0.00018504
Si       2.71500000       2.71500000      19.57500000        4       0.00000000       0.00000000       0.00001451
Si       4.07250000       4.07250000      18.21750000        4      -0.00000000       0.00000000      -0.00018504
Si       0.00000000       0.00000000      19.57500000        4      -0.00000000      -0.00000000       0.00001451
Si       1.35750000       4.07250000      20.93250000        4      -0.00000000      -0.00000000       0.00006299
Si       2.71500000       0.00000000      16.86000000        4       0.00000000      -0.00000000      -0.00011308
Si       4.07250000       1.35750000      20.93250000        4      -0.00000000      -0.00000000       0.00006299
Si       0.00000000       2.71500000      16.86000000        4      -0.00000000       0.00000000      -0.00011308
Si       1.35750000       1.35750000      23.64750000        3      -0.00000000      -0.00000000      -0.00001451
Si       2.71500000       2.71500000      25.00500000        3       0.00000000       0.00000000       0.00018504
Si       4.07250000       4.07250000      23.64750000        3       0.00000000      -0.00000000      -0.00001451
Si       0.00000000       0.00000000      25.00500000        3      -0.00000000      -0.00000000       0.00018504
Si       1.35750000       4.07250000      26.36250000        3      -0.00000000      -0.00000000       0.00011308
Si       2.71500000       0.00000000      22.29000000        3       0.00000000      -0.00000000      -0.00006299
Si       4.07250000       1.35750000      26.36250000        3      -0.00000000      -0.00000000       0.00011308
Si       0.00000000       2.71500000      22.29000000        3      -0.00000000       0.00000000      -0.00006299
Si       1.35750000       1.35750000      29.07750000        2      -0.00000000      -0.00000000      -0.00062312
Si       2.71500000       2.71500000      30.43500000        2       0.00000000       0.00000000       0.00417746
Si       4.07250000       4.07250000      29.07750000        2      -0.00000000       0.00000000      -0.00062312
Si       0.00000000       0.00000000      30.43500000        2      -0.00000000      -0.00000000       0.00417746
Si       1.35750000       4.07250000      31.79250000        2      -0.00000000      -0.00000000      -0.05578913
Si       2.71500000       0.00000000      27.72000000        2       0.00000000      -0.00000000       0.00027168
Si       4.07250000       1.35750000      31.79250000        2      -0.00000000      -0.00000000      -0.05578913
Si       0.00000000       2.71500000      27.72000000        2      -0.00000000       0.00000000       0.00027168
Si       1.35750000       1.35750000      34.50750000        1       0.00000000       0.00000000       0.05691596
Si       2.71500000       2.71500000      35.86500000        1       0.00000000       0.00000000      -0.13851801
Si       4.07250000       4.07250000      34.50750000        1      -0.00000000       0.00000000       0.05691596
Si       0.00000000       0.00000000      35.86500000        1      -0.00000000      -0.00000000      -0.13851801
Si       1.35750000       4.07250000      37.22250000        1      -0.00000000      -0.00000000       0.30844850
Si       2.71500000       0.00000000      33.15000000        1       0.00000000      -0.00000000      -0.00466394
Si       4.07250000       1.35750000      37.22250000        1       0.00000000       0.00000000       0.30844850
Si       0.00000000       2.71500000      33.15000000        1      -0.00000000       0.00000000      -0.00466394
48
Lattice="7.679179643685906 0.0 0.0 0.0 5.43 0.0 0.0 0.0 33.11774402013624" Properties=species:S:1:pos:R:3:tags:I:1:forces:R:3 config_type=slab miller=110 energy=-252.80826261529913 label_model=mpa-0 structure_key=13385699c842817793953cf9aef2396815f9c5de4b4b8d734567e9d4c9c97465 pbc="T T F"
Si       7.67917964       4.07250000       7.91979491        6      -0.00000000      -0.01540587      -0.14817580
Si       3.83958982       2.71500000       6.00000000        6      -0.00000000      -0.29184200      -0.02076463
Si       1.91979491       1.35750000       6.00000000        6       0.00000000       0.29184200      -0.02076463
Si       1.91979491       0.00000000       7.91979491        6      -0.00000000       0.01540587      -0.14817580
Si       5.75938473       1.35750000       6.00000000        6       0.00000000       0.29184200      -0.02076463
Si       5.75938473       0.00000000       7.91979491        6      -0.00000000       0.01540587      -0.14817580
Si       3.83958982       4.07250000       7.91979491        6      -0.00000000      -0.01540587      -0.14817580
Si       0.00000000       2.71500000       6.00000000        6      -0.00000000      -0.29184200      -0.02076463
Si       3.83958982       4.07250000      11.75938473        5      -0.00000000      -0.01199892       0.01267183
Si       7.67917964       2.71500000       9.83958982        5       0.00000000       0.01591802       0.03033710
Si       5.75938473       1.35750000       9.83958982        5       0.00000000      -0.01591802       0.03033710
Si       5.75938473       0.00000000      11.75938473        5      -0.00000000       0.01199892       0.01267183
Si       1.91979491       1.35750000       9.83958982        5       0.00000000      -0.01591802       0.03033710
Si       1.91979491       0.00000000      11.75938473        5      -0.00000000       0.01199892       0.01267183
Si       7.67917964       4.07250000      11.75938473        5       0.00000000      -0.01199892       0.01267183
Si       3.83958982       2.71500000       9.83958982        5      -0.00000000       0.01591802       0.03033710
Si       7.67917964       4.07250000      15.59897455        4       0.00000000      -0.00071965       0.00003928
Si       3.83958982       2.71500000      13.67917964        4       0.00000000       0.00126359       0.00512320
Si       1.91979491       1.35750000      13.67917964        4       0.00000000      -0.00126359       0.00512320
Si       1.91979491       0.00000000      15.59897455        4       0.00000000       0.00071965       0.00003928
Si       5.75938473       1.35750000      13.67917964        4      -0.00000000      -0.00126359       0.00512320
Si       5.75938473       0.00000000      15.59897455        4       0.00000000       0.00071965       0.00003928
Si       3.83958982       4.07250000      15.59897455        4      -0.00000000      -0.00071965       0.00003928
Si       7.67917964       2.71500000      13.67917964        4      -0.00000000       0.00126359       0.00512320
Si       3.83958982       4.07250000      19.43856438        3      -0.00000000      -0.00126359      -0.00512320
Si       7.67917964       2.71500000      17.51876947        3      -0.00000000       0.00071965      -0.00003928
Si       5.75938473       1.35750000      17.51876947        3       0.00000000      -0.00071965      -0.00003928
Si       5.75938473       0.00000000      19.43856438        3      -0.00000000       0.00126359      -0.00512320
Si       1.91979491       1.35750000      17.51876947        3      -0.00000000      -0.00071965      -0.00003928
Si       1.91979491       0.00000000      19.43856438        3       0.00000000       0.00126359      -0.00512320
Si       7.67917964       4.07250000      19.43856438        3       0.00000000      -0.00126359      -0.00512320
Si       3.83958982       2.71500000      17.51876947        3       0.00000000       0.00071965      -0.00003928
Si       0.00000000       4.07250000      23.27815420        2      -0.00000000      -0.01591802      -0.03033710
Si       3.83958982       2.71500000      21.35835929        2       0.00000000       0.01199892      -0.01267183
Si       1.91979491       1.35750000      21.35835929        2      -0.00000000      -0.01199892      -0.01267183
Si       1.91979491       0.00000000      23.27815420        2      -0.00000000       0.01591802      -0.03033710
Si       5.75938473       1.35750000      21.35835929        2       0.00000000      -0.01199892      -0.01267183
Si       5.75938473       0.00000000      23.27815420        2      -0.00000000       0.01591802      -0.03033710
Si       3.83958982       4.07250000      23.27815420        2       0.00000000      -0.01591802      -0.03033710
Si       7.67917964       2.71500000      21.35835929        2       0.00000000       0.01199892      -0.01267183
Si       3.83958982       4.07250000      27.11774402        1      -0.00000000       0.29184200       0.02076463
Si       0.00000000       2.71500000      25.19794911        1      -0.00000000       0.01540587       0.14817580
Si       5.75938473       1.35750000      25.19794911        1      -0.00000000      -0.01540587       0.14817580
Si       5.75938473       0.00000000      27.11774402        1      -0.00000000      -0.29184200       0.02076463
Si       1.91979491       1.35750000      25.19794911        1      -0.00000000      -0.01540587       0.14817580
Si       1.91979491       0.00000000      27.11774402        1      -0.00000000      -0.29184200       0.02076463
Si       7.67917964       4.07250000      27.11774402        1       0.00000000       0.29184200       0.02076463
Si       3.83958982       2.71500000      25.19794911        1       0.00000000       0.01540587       0.14817580
48
Lattice="7.679179643685906 0.0 0.0 3.8395898218429525 6.650364651656329 0.0 0.0 0.0 28.458812798923255" Properties=species:S:1:pos:R:3:tags:I:1:forces:R:3 config_type=slab miller=111 energy=-252.52667500752295 label_model=mpa-0 structure_key=391b99b64f18471850ca23c94faefe70303628f994d5e3f0671822776c35115c pbc="T T F"
Si       0.00000000       0.00000000       6.78375299        6      -0.00000000      -0.00000000      -0.11446684
Si       3.83958982       2.21678822       6.00000000        6       0.00000000      -0.00000000      -0.12283146
Si       1.91979491       3.32518233       6.78375299        6      -0.00000000       0.00000000      -0.11446684
Si       5.75938473       5.54197054       6.00000000        6       0.00000000       0.00000000      -0.12283146
Si       3.83958982       0.00000000       6.78375299        6      -0.00000000      -0.00000000      -0.11446684
Si       7.67917964       2.21678822       6.00000000        6       0.00000000       0.00000000      -0.12283146
Si       5.75938473       3.32518233       6.78375299        6       0.00000000       0.00000000      -0.11446684
Si       9.59897455       5.54197054       6.00000000        6       0.00000000       0.00000000      -0.12283146
Si       7.67917964       4.43357643       9.91876495        5      -0.00000000      -0.00000000       0.01479893
Si       0.00000000       0.00000000       9.13501196        5       0.00000000      -0.00000000       0.06524322
Si       5.75938473       1.10839411       9.91876495        5      -0.00000000       0.00000000       0.01479893
Si       1.91979491       3.32518233       9.13501196        5       0.00000000      -0.00000000       0.06524322
Si       3.83958982       4.43357643       9.91876495        5      -0.00000000      -0.00000000       0.01479893
Si       7.67917964       6.65036465       9.13501196        5       0.00000000       0.00000000       0.06524322
Si       1.91979491       1.10839411       9.91876495        5      -0.00000000      -0.00000000       0.01479893
Si       5.75938473       3.32518233       9.13501196        5       0.00000000       0.00000000       0.06524322
Si       3.83958982       2.21678822      13.05377691        4      -0.00000000       0.00000000       0.00878884
Si       7.67917964       4.43357643      12.27002392        4       0.00000000      -0.00000000      -0.00491787
Si       5.75938473       5.54197054      13.05377691        4      -0.00000000       0.00000000       0.00878884
Si       5.75938473       1.10839411      12.27002392        4       0.00000000      -0.00000000      -0.00491787
Si       7.67917964       2.21678822      13.05377691        4      -0.00000000       0.00000000       0.00878884
Si       3.83958982       4.43357643      12.27002392        4       0.00000000       0.00000000      -0.00491787
Si       9.59897455       5.54197054      13.05377691        4       0.00000000      -0.00000000       0.00878884
Si       1.91979491       1.10839411      12.27002392        4       0.00000000       0.00000000      -0.00491787
Si       0.00000000       0.00000000      16.18878888        3      -0.00000000       0.00000000       0.00491787
Si       3.83958982       2.21678822      15.40503589        3       0.00000000       0.00000000      -0.00878884
Si       1.91979491       3.32518233      16.18878888        3      -0.00000000       0.00000000       0.00491787
Si       5.75938473       5.54197054      15.40503589        3       0.00000000      -0.00000000      -0.00878884
Si       3.83958982       0.00000000      16.18878888        3       0.00000000      -0.00000000       0.00491787
Si       7.67917964       2.21678822      15.40503589        3       0.00000000       0.00000000      -0.00878884
Si       5.75938473       3.32518233      16.18878888        3       0.00000000      -0.00000000       0.00491787
Si       9.59897455       5.54197054      15.40503589        3       0.00000000       0.00000000      -0.00878884
Si       7.67917964       4.43357643      19.32380084        2      -0.00000000       0.00000000      -0.06524322
Si       0.00000000       0.00000000      18.54004785        2       0.00000000      -0.00000000      -0.01479893
Si       5.75938473       1.10839411      19.32380084        2      -0.00000000       0.00000000      -0.06524322
Si       1.91979491       3.32518233      18.54004785        2       0.00000000      -0.00000000      -0.01479893
Si       3.83958982       4.43357643      19.32380084        2      -0.00000000      -0.00000000      -0.06524322
Si       3.83958982       0.00000000      18.54004785        2       0.00000000       0.00000000      -0.01479893
Si       1.91979491       1.10839411      19.32380084        2       0.00000000      -0.00000000      -0.06524322
Si       5.75938473       3.32518233      18.54004785        2      -0.00000000       0.00000000      -0.01479893
Si       3.83958982       2.21678822      22.45881280        1      -0.00000000      -0.00000000       0.12283146
Si       7.67917964       4.43357643      21.67505981        1       0.00000000       0.00000000       0.11446684
Si       5.75938473       5.54197054      22.45881280        1      -0.00000000       0.00000000       0.12283146
Si       5.75938473       1.10839411      21.67505981        1       0.00000000       0.00000000       0.11446684
Si       7.67917964       2.21678822      22.45881280        1      -0.00000000      -0.00000000       0.12283146
Si       3.83958982       4.43357643      21.67505981        1       0.00000000       0.00000000       0.11446684
Si       9.59897455       5.54197054      22.45881280        1       0.00000000      -0.00000000       0.12283146
Si       1.91979491       1.10839411      21.67505981        1       0.00000000       0.00000000       0.11446684
48
Lattice="5.43 0.0 0.0 0.0 5.43 0.0 0.0 0.0 47.2225" Properties=species:S:1:pos:R:3:tags:I:1:forces:R:3 config_type=slab miller=100 energy=-252.6024910289055 label_model=mpa-0 structure_key=64f3f6f72d20027508e6a00bf59075b93690c078362122c8bd6c0952edb52545 pbc="T T F"
Si       1.35750000       1.35750000       9.35750000        6      -0.00000000       0.00000000       0.13851801
Si       2.71500000       2.71500000      10.71500000        6       0.00000000       0.00000000      -0.05691596
Si       4.07250000       4.07250000       9.35750000        6       0.00000000      -0.00000000       0.13851801
Si       0.00000000       0.00000000      10.71500000        6      -0.00000000      -0.00000000      -0.05691596
Si       1.35750000       4.07250000      12.07250000        6       0.00000000      -0.00000000       0.00466394
Si       2.71500000       0.00000000       8.00000000        6       0.00000000      -0.00000000      -0.30844850
Si       4.07250000       1.35750000      12.07250000        6       0.00000000      -0.00000000       0.00466394
Si       0.00000000       2.71500000       8.00000000        6      -0.00000000       0.00000000      -0.30844850
Si       1.35750000       1.35750000      14.78750000        5      -0.00000000      -0.00000000      -0.00417746
Si       2.71500000       2.71500000      16.14500000        5       0.00000000       0.00000000       0.00062312
Si       4.07250000       4.07250000      14.78750000        5      -0.00000000      -0.00000000      -0.00417746
Si       0.00000000       0.00000000      16.14500000        5       0.00000000       0.00000000       0.00062312
Si       1.35750000       4.07250000      17.50250000        5      -0.00000000      -0.00000000      -0.00027168
Si       2.71500000       0.00000000      13.43000000        5       0.00000000      -0.00000000       0.05578913
Si       4.07250000       1.35750000      17.50250000        5      -0.00000000      -0.00000000      -0.00027168
Si       0.00000000       2.71500000      13.43000000        5       0.00000000       0.00000000       0.05578913
Si       1.35750000       1.35750000      20.21750000        4      -0.00000000      -0.00000000      -0.00018504
Si       2.71500000       2.71500000      21.57500000        4       0.00000000       0.00000000       0.00001451
Si       4.07250000       4.07250000      20.21750000        4       0.00000000      -0.00000000      -0.00018504
Si       0.00000000       0.00000000      21.57500000        4       0.00000000      -0.00000000       0.00001451
Si       1.35750000       4.07250000      22.93250000        4      -0.00000000      -0.00000000       0.00006299
Si       2.71500000       0.00000000      18.86000000        4       0.00000000      -0.00000000      -0.00011308
Si       4.07250000       1.35750000      22.93250000        4      -0.00000000      -0.00000000       0.00006299
Si       0.00000000       2.71500000      18.86000000        4      -0.00000000       0.00000000      -0.00011308
Si       1.35750000       1.35750000      25.64750000        3      -0.00000000      -0.00000000      -0.00001451
Si       2.71500000       2.71500000      27.00500000        3       0.00000000       0.00000000       0.00018504
Si       4.07250000       4.07250000      25.64750000        3       0.00000000       0.00000000      -0.00001451
Si       0.00000000       0.00000000      27.00500000        3      -0.00000000       0.00000000       0.00018504
Si       1.35750000       4.07250000      28.36250000        3      -0.00000000      -0.00000000       0.00011308
Si       2.71500000       0.00000000      24.29000000        3       0.00000000      -0.00000000      -0.00006299
Si       4.07250000       1.35750000      28.36250000        3       0.00000000      -0.00000000       0.00011308
Si       0.00000000       2.71500000      24.29000000        3      -0.00000000       0.00000000      -0.00006299
Si       1.35750000       1.35750000      31.07750000        2      -0.00000000      -0.00000000      -0.00062312
Si       2.71500000       2.71500000      32.43500000        2       0.00000000       0.00000000       0.00417746
Si       4.07250000       4.07250000      31.07750000        2      -0.00000000      -0.00000000      -0.00062312
Si       0.00000000       0.00000000      32.43500000        2      -0.00000000      -0.00000000       0.00417746
Si       1.35750000       4.07250000      33.79250000        2      -0.00000000      -0.00000000      -0.05578913
Si       2.71500000       0.00000000      29.72000000        2       0.00000000      -0.00000000       0.00027168
Si       4.07250000       1.35750000      33.79250000        2      -0.00000000      -0.00000000      -0.05578913
Si       0.00000000       2.71500000      29.72000000        2      -0.00000000       0.00000000       0.00027168
Si       1.35750000       1.35750000      36.50750000        1      -0.00000000      -0.00000000       0.05691596
Si       2.71500000       2.71500000      37.86500000        1      -0.00000000       0.00000000      -0.13851801
Si       4.07250000       4.07250000      36.50750000        1       0.00000000       0.00000000       0.05691596
Si       0.00000000       0.00000000      37.86500000        1      -0.00000000       0.00000000      -0.13851801
Si       1.35750000       4.07250000      39.22250000        1       0.00000000      -0.00000000       0.30844850
Si       2.71500000       0.00000000      35.15000000        1       0.00000000      -0.00000000      -0.00466394
Si       4.07250000       1.35750000      39.22250000        1       0.00000000      -0.00000000       0.30844850
Si       0.00000000       2.71500000      35.15000000        1      -0.00000000       0.00000000      -0.00466394
48
Lattice="7.679179643685906 0.0 0.0 0.0 5.43 0.0 0.0 0.0 37.11774402013624" Properties=species:S:1:pos:R:3:tags:I:1:forces:R:3 config_type=slab miller=110 energy=-252.80826261529913 label_model=mpa-0 structure_key=83d9358ccf4afcb11ba02ae757c39d7b6335983fe389f4709f455434c1cc979b pbc="T T F"
Si       7.67917964       4.07250000       9.91979491        6      -0.00000000      -0.01540587      -0.14817580
Si       3.83958982       2.71500000       8.00000000        6       0.00000000      -0.29184200      -0.02076463
Si       1.91979491       1.35750000       8.00000000        6       0.00000000       0.29184200      -0.02076463
Si       1.91979491       0.00000000       9.91979491        6      -0.00000000       0.01540587      -0.14817580
Si       5.75938473       1.35750000       8.00000000        6       0.00000000       0.29184200      -0.02076463
Si       5.75938473       0.00000000       9.91979491        6      -0.00000000       0.01540587      -0.14817580
Si       3.83958982       4.07250000       9.91979491        6      -0.00000000      -0.01540587      -0.14817580
Si       0.00000000       2.71500000       8.00000000        6      -0.00000000      -0.29184200      -0.02076463
Si       3.83958982       4.07250000      13.75938473        5      -0.00000000      -0.01199892       0.01267183
Si       7.67917964       2.71500000      11.83958982        5       0.00000000       0.01591802       0.03033710
Si       5.75938473       1.35750000      11.83958982        5       0.00000000      -0.01591802       0.03033710
Si       5.75938473       0.00000000      13.75938473        5       0.00000000       0.01199892       0.01267183
Si       1.91979491       1.35750000      11.83958982        5       0.00000000      -0.01591802       0.03033710
Si       1.91979491       0.00000000      13.75938473        5      -0.00000000       0.01199892       0.01267183
Si       7.67917964       4.07250000      13.75938473        5       0.00000000      -0.01199892       0.01267183
Si       3.83958982       2.71500000      11.83958982        5      -0.00000000       0.01591802       0.03033710
Si       7.67917964       4.07250000      17.59897455        4       0.00000000      -0.00071965       0.00003928
Si       3.83958982       2.71500000      15.67917964        4      -0.00000000       0.00126359       0.00512320
Si       1.91979491       1.35750000      15.67917964        4       0.00000000      -0.00126359       0.00512320
Si       1.91979491       0.00000000      17.59897455        4       0.00000000       0.00071965       0.00003928
Si       5.75938473       1.35750000      15.67917964        4      -0.00000000      -0.00126359       0.00512320
Si       5.75938473       0.00000000      17.59897455        4      -0.00000000       0.00071965       0.00003928
Si       3.83958982       4.07250000      17.59897455        4      -0.00000000      -0.00071965       0.00003928
Si       7.67917964       2.71500000      15.67917964        4       0.00000000       0.00126359       0.00512320
Si       3.83958982       4.07250000      21.43856438        3      -0.00000000      -0.00126359      -0.00512320
Si       7.67917964       2.71500000      19.51876947        3       0.00000000       0.00071965      -0.00003928
Si       5.75938473       1.35750000      19.51876947        3       0.00000000      -0.00071965      -0.00003928
Si       5.75938473       0.00000000      21.43856438        3      -0.00000000       0.00126359      -0.00512320
Si       1.91979491       1.35750000      19.51876947        3      -0.00000000      -0.00071965      -0.00003928
Si       1.91979491       0.00000000      21.43856438        3       0.00000000       0.00126359      -0.00512320
Si       7.67917964       4.07250000      21.43856438        3       0.00000000      -0.00126359      -0.00512320
Si       3.83958982       2.71500000      19.51876947        3       0.00000000       0.00071965      -0.00003928
Si       0.00000000       4.07250000      25.27815420        2      -0.00000000      -0.01591802      -0.03033710
Si       3.83958982       2.71500000      23.35835929        2       0.00000000       0.01199892      -0.01267183
Si       1.91979491       1.35750000      23.35835929        2      -0.00000000      -0.01199892      -0.01267183
Si       1.91979491       0.00000000      25.27815420        2      -0.00000000       0.01591802      -0.03033710
Si       5.75938473       1.35750000      23.35835929        2       0.00000000      -0.01199892      -0.01267183
Si       5.75938473       0.00000000      25.27815420        2      -0.00000000       0.01591802      -0.03033710
Si       3.83958982       4.07250000      25.27815420        2       0.00000000      -0.01591802      -0.03033710
Si       7.67917964       2.71500000      23.35835929        2       0.00000000       0.01199892      -0.01267183
Si       3.83958982       4.07250000      29.11774402        1      -0.00000000       0.29184200       0.02076463
Si       0.00000000       2.71500000      27.19794911        1      -0.00000000       0.01540587       0.14817580
Si       5.75938473       1.35750000      27.19794911        1      -0.00000000      -0.01540587       0.14817580
Si       5.75938473       0.00000000      29.11774402        1       0.00000000      -0.29184200       0.02076463
Si       1.91979491       1.35750000      27.19794911        1      -0.00000000      -0.01540587       0.14817580
Si       1.91979491       0.00000000      29.11774402        1      -0.00000000      -0.29184200       0.02076463
Si       7.67917964       4.07250000      29.11774402        1       0.00000000       0.29184200       0.02076463
Si       3.83958982       2.71500000      27.19794911        1       0.00000000       0.01540587       0.14817580
48
Lattice="7.679179643685906 0.0 0.0 3.8395898218429525 6.650364651656329 0.0 0.0 0.0 32.458812798923255" Properties=species:S:1:pos:R:3:tags:I:1:forces:R:3 config_type=slab miller=111 energy=-252.52667500752295 label_model=mpa-0 structure_key=27e993f6aab9fbfb558f5c9bc3fb0a34bcdee869c22af19e0aa78972470aa9f1 pbc="T T F"
Si       0.00000000       0.00000000       8.78375299        6      -0.00000000      -0.00000000      -0.11446684
Si       3.83958982       2.21678822       8.00000000        6       0.00000000      -0.00000000      -0.12283146
Si       1.91979491       3.32518233       8.78375299        6      -0.00000000       0.00000000      -0.11446684
Si       5.75938473       5.54197054       8.00000000        6      -0.00000000       0.00000000      -0.12283146
Si       3.83958982       0.00000000       8.78375299        6      -0.00000000      -0.00000000      -0.11446684
Si       7.67917964       2.21678822       8.00000000        6       0.00000000      -0.00000000      -0.12283146
Si       5.75938473       3.32518233       8.78375299        6       0.00000000      -0.00000000      -0.11446684
Si       9.59897455       5.54197054       8.00000000        6       0.00000000       0.00000000      -0.12283146
Si       7.67917964       4.43357643      11.91876495        5      -0.00000000      -0.00000000       0.01479893
Si       0.00000000       0.00000000      11.13501196        5       0.00000000      -0.00000000       0.06524322
Si       5.75938473       1.10839411      11.91876495        5      -0.00000000       0.00000000       0.01479893
Si       1.91979491       3.32518233      11.13501196        5       0.00000000      -0.00000000       0.06524322
Si       3.83958982       4.43357643      11.91876495        5      -0.00000000      -0.00000000       0.01479893
Si       7.67917964       6.65036465      11.13501196        5       0.00000000       0.00000000       0.06524322
Si       1.91979491       1.10839411      11.91876495        5      -0.00000000      -0.00000000       0.01479893
Si       5.75938473       3.32518233      11.13501196        5       0.00000000       0.00000000       0.06524322
Si       3.83958982       2.21678822      15.05377691        4      -0.00000000       0.00000000       0.00878884
Si       7.67917964       4.43357643      14.27002392        4       0.00000000      -0.00000000      -0.00491787
Si       5.75938473       5.54197054      15.05377691        4      -0.00000000       0.00000000       0.00878884
Si       5.75938473       1.10839411      14.27002392        4       0.00000000      -0.00000000      -0.00491787
Si       7.67917964       2.21678822      15.05377691        4      -0.00000000       0.00000000       0.00878884
Si       3.83958982       4.43357643      14.27002392        4       0.00000000       0.00000000      -0.00491787
Si       9.59897455       5.54197054      15.05377691        4       0.00000000      -0.00000000       0.00878884
Si       1.91979491       1.10839411      14.27002392        4       0.00000000       0.00000000      -0.00491787
Si       0.00000000       0.00000000      18.18878888        3      -0.00000000       0.00000000       0.00491787
Si       3.83958982       2.21678822      17.40503589        3       0.00000000       0.00000000      -0.00878884
Si       1.91979491       3.32518233      18.18878888        3      -0.00000000       0.00000000       0.00491787
Si       5.75938473       5.54197054      17.40503589        3       0.00000000      -0.00000000      -0.00878884
Si       3.83958982       0.00000000      18.18878888        3       0.00000000      -0.00000000       0.00491787
Si       7.67917964       2.21678822      17.40503589        3       0.00000000       0.00000000      -0.00878884
Si       5.75938473       3.32518233      18.18878888        3       0.00000000      -0.00000000       0.00491787
Si       9.59897455       5.54197054      17.40503589        3       0.00000000       0.00000000      -0.00878884
Si       7.67917964       4.43357643      21.32380084        2      -0.00000000       0.00000000      -0.06524322
Si       0.00000000       0.00000000      20.54004785        2       0.00000000      -0.00000000      -0.01479893
Si       5.75938473       1.10839411      21.32380084        2      -0.00000000       0.00000000      -0.06524322
Si       1.91979491       3.32518233      20.54004785        2       0.00000000      -0.00000000      -0.01479893
Si       3.83958982       4.43357643      21.32380084        2      -0.00000000      -0.00000000      -0.06524322
Si       3.83958982       0.00000000      20.54004785        2       0.00000000       0.00000000      -0.01479893
Si       1.91979491       1.10839411      21.32380084        2       0.00000000      -0.00000000      -0.06524322
Si       5.75938473       3.32518233      20.54004785        2       0.00000000       0.00000000      -0.01479893
Si       3.83958982       2.21678822      24.45881280        1      -0.00000000      -0.00000000       0.12283146
Si       7.67917964       4.43357643      23.67505981        1       0.00000000      -0.00000000       0.11446684
Si       5.75938473       5.54197054      24.45881280        1      -0.00000000       0.00000000       0.12283146
Si       5.75938473       1.10839411      23.67505981        1       0.00000000       0.00000000       0.11446684
Si       7.67917964       2.21678822      24.45881280        1       0.00000000      -0.00000000       0.12283146
Si       3.83958982       4.43357643      23.67505981        1       0.00000000       0.00000000       0.11446684
Si       9.59897455       5.54197054      24.45881280        1      -0.00000000      -0.00000000       0.12283146
Si       1.91979491       1.10839411      23.67505981        1       0.00000000       0.00000000       0.11446684
48
Lattice="5.43 0.0 0.0 0.0 5.43 0.0 0.0 0.0 51.2225" Properties=species:S:1:pos:R:3:tags:I:1:forces:R:3 config_type=slab miller=100 energy=-252.60249102890543 label_model=mpa-0 structure_key=1c3c843d320e773503f8625657232589275cbe26df532a9d986a9f87d3fa4310 pbc="T T F"
Si       1.35750000       1.35750000      11.35750000        6      -0.00000000      -0.00000000       0.13851801
Si       2.71500000       2.71500000      12.71500000        6       0.00000000       0.00000000      -0.05691596
Si       4.07250000       4.07250000      11.35750000        6       0.00000000       0.00000000       0.13851801
Si       0.00000000       0.00000000      12.71500000        6      -0.00000000      -0.00000000      -0.05691596
Si       1.35750000       4.07250000      14.07250000        6      -0.00000000       0.00000000       0.00466394
Si       2.71500000       0.00000000      10.00000000        6       0.00000000      -0.00000000      -0.30844850
Si       4.07250000       1.35750000      14.07250000        6      -0.00000000       0.00000000       0.00466394
Si       0.00000000       2.71500000      10.00000000        6      -0.00000000       0.00000000      -0.30844850
Si       1.35750000       1.35750000      16.78750000        5      -0.00000000      -0.00000000      -0.00417746
Si       2.71500000       2.71500000      18.14500000        5       0.00000000       0.00000000       0.00062312
Si       4.07250000       4.07250000      16.78750000        5      -0.00000000      -0.00000000      -0.00417746
Si       0.00000000       0.00000000      18.14500000        5       0.00000000       0.00000000       0.00062312
Si       1.35750000       4.07250000      19.50250000        5      -0.00000000      -0.00000000      -0.00027168
Si       2.71500000       0.00000000      15.43000000        5       0.00000000      -0.00000000       0.05578913
Si       4.07250000       1.35750000      19.50250000        5      -0.00000000      -0.00000000      -0.00027168
Si       0.00000000       2.71500000      15.43000000        5      -0.00000000       0.00000000       0.05578913
Si       1.35750000       1.35750000      22.21750000        4      -0.00000000      -0.00000000      -0.00018504
Si       2.71500000       2.71500000      23.57500000        4       0.00000000       0.00000000       0.00001451
Si       4.07250000       4.07250000      22.21750000        4      -0.00000000      -0.00000000      -0.00018504
Si       0.00000000       0.00000000      23.57500000        4      -0.00000000       0.00000000       0.00001451
Si       1.35750000       4.07250000      24.93250000        4      -0.00000000      -0.00000000       0.00006299
Si       2.71500000       0.00000000      20.86000000        4       0.00000000      -0.00000000      -0.00011308
Si       4.07250000       1.35750000      24.93250000        4      -0.00000000      -0.00000000       0.00006299
Si       0.00000000       2.71500000      20.86000000        4       0.00000000       0.00000000      -0.00011308
Si       1.35750000       1.35750000      27.64750000        3      -0.00000000      -0.00000000      -0.00001451
Si       2.71500000       2.71500000      29.00500000        3       0.00000000       0.00000000       0.00018504
Si       4.07250000       4.07250000      27.64750000        3       0.00000000      -0.00000000      -0.00001451
Si       0.00000000       0.00000000      29.00500000        3      -0.00000000      -0.00000000       0.00018504
Si       1.35750000       4.07250000      30.36250000        3      -0.00000000       0.00000000       0.00011308
Si       2.71500000       0.00000000      26.29000000        3       0.00000000      -0.00000000      -0.00006299
Si       4.07250000       1.35750000      30.36250000        3      -0.00000000      -0.00000000       0.00011308
Si       0.00000000       2.71500000      26.29000000        3       0.00000000       0.00000000      -0.00006299
Si       1.35750000       1.35750000      33.07750000        2      -0.00000000      -0.00000000      -0.00062312
Si       2.71500000       2.71500000      34.43500000        2       0.00000000       0.00000000       0.00417746
Si       4.07250000       4.07250000      33.07750000        2       0.00000000      -0.00000000      -0.00062312
Si       0.00000000       0.00000000      34.43500000        2      -0.00000000      -0.00000000       0.00417746
Si       1.35750000       4.07250000      35.79250000        2      -0.00000000      -0.00000000      -0.05578913
Si       2.71500000       0.00000000      31.72000000        2       0.00000000      -0.00000000       0.00027168
Si       4.07250000       1.35750000      35.79250000        2      -0.00000000      -0.00000000      -0.05578913
Si       0.00000000       2.71500000      31.72000000        2      -0.00000000       0.00000000       0.00027168
Si       1.35750000       1.35750000      38.50750000        1       0.00000000       0.00000000       0.05691596
Si       2.71500000       2.71500000      39.86500000        1      -0.00000000      -0.00000000      -0.13851801
Si       4.07250000       4.07250000      38.50750000        1      -0.00000000      -0.00000000       0.05691596
Si       0.00000000       0.00000000      39.86500000        1       0.00000000      -0.00000000      -0.13851801
Si       1.35750000       4.07250000      41.22250000        1      -0.00000000       0.00000000       0.30844850
Si       2.71500000       0.00000000      37.15000000        1       0.00000000      -0.00000000      -0.00466394
Si       4.07250000       1.35750000      41.22250000        1      -0.00000000       0.00000000       0.30844850
Si       0.00000000       2.71500000      37.15000000        1      -0.00000000       0.00000000      -0.00466394
48
Lattice="7.679179643685906 0.0 0.0 0.0 5.43 0.0 0.0 0.0 41.11774402013624" Properties=species:S:1:pos:R:3:tags:I:1:forces:R:3 config_type=slab miller=110 energy=-252.80826261529913 label_model=mpa-0 structure_key=1f1b31905f6437aa53eb66218014338120daa13bba190776012e450532e06eaa pbc="T T F"
Si       7.67917964       4.07250000      11.91979491        6       0.00000000      -0.01540587      -0.14817580
Si       3.83958982       2.71500000      10.00000000        6       0.00000000      -0.29184200      -0.02076463
Si       1.91979491       1.35750000      10.00000000        6      -0.00000000       0.29184200      -0.02076463
Si       1.91979491       0.00000000      11.91979491        6      -0.00000000       0.01540587      -0.14817580
Si       5.75938473       1.35750000      10.00000000        6       0.00000000       0.29184200      -0.02076463
Si       5.75938473       0.00000000      11.91979491        6      -0.00000000       0.01540587      -0.14817580
Si       3.83958982       4.07250000      11.91979491        6      -0.00000000      -0.01540587      -0.14817580
Si       0.00000000       2.71500000      10.00000000        6      -0.00000000      -0.29184200      -0.02076463
Si       3.83958982       4.07250000      15.75938473        5      -0.00000000      -0.01199892       0.01267183
Si       7.67917964       2.71500000      13.83958982        5      -0.00000000       0.01591802       0.03033710
Si       5.75938473       1.35750000      13.83958982        5       0.00000000      -0.01591802       0.03033710
Si       5.75938473       0.00000000      15.75938473        5       0.00000000       0.01199892       0.01267183
Si       1.91979491       1.35750000      13.83958982        5       0.00000000      -0.01591802       0.03033710
Si       1.91979491       0.00000000      15.75938473        5      -0.00000000       0.01199892       0.01267183
Si       7.67917964       4.07250000      15.75938473        5       0.00000000      -0.01199892       0.01267183
Si       3.83958982       2.71500000      13.83958982        5       0.00000000       0.01591802       0.03033710
Si       7.67917964       4.07250000      19.59897455        4       0.00000000      -0.00071965       0.00003928
Si       3.83958982       2.71500000      17.67917964        4      -0.00000000       0.00126359       0.00512320
Si       1.91979491       1.35750000      17.67917964        4       0.00000000      -0.00126359       0.00512320
Si       1.91979491       0.00000000      19.59897455        4       0.00000000       0.00071965       0.00003928
Si       5.75938473       1.35750000      17.67917964        4      -0.00000000      -0.00126359       0.00512320
Si       5.75938473       0.00000000      19.59897455        4       0.00000000       0.00071965       0.00003928
Si       3.83958982       4.07250000      19.59897455        4      -0.00000000      -0.00071965       0.00003928
Si       7.67917964       2.71500000      17.67917964        4      -0.00000000       0.00126359       0.00512320
Si       3.83958982       4.07250000      23.43856438        3      -0.00000000      -0.00126359      -0.00512320
Si       7.67917964       2.71500000      21.51876947        3       0.00000000       0.00071965      -0.00003928
Si       5.75938473       1.35750000      21.51876947        3       0.00000000      -0.00071965      -0.00003928
Si       5.75938473       0.00000000      23.43856438        3      -0.00000000       0.00126359      -0.00512320
Si       1.91979491       1.35750000      21.51876947        3      -0.00000000      -0.00071965      -0.00003928
Si       1.91979491       0.00000000      23.43856438        3       0.00000000       0.00126359      -0.00512320
Si       7.67917964       4.07250000      23.43856438        3       0.00000000      -0.00126359      -0.00512320
Si       3.83958982       2.71500000      21.51876947        3       0.00000000       0.00071965      -0.00003928
Si       0.00000000       4.07250000      27.27815420        2      -0.00000000      -0.01591802      -0.03033710
Si       3.83958982       2.71500000      25.35835929        2       0.00000000       0.01199892      -0.01267183
Si       1.91979491       1.35750000      25.35835929        2      -0.00000000      -0.01199892      -0.01267183
Si       1.91979491       0.00000000      27.27815420        2      -0.00000000       0.01591802      -0.03033710
Si       5.75938473       1.35750000      25.35835929        2       0.00000000      -0.01199892      -0.01267183
Si       5.75938473       0.00000000      27.27815420        2      -0.00000000       0.01591802      -0.03033710
Si       3.83958982       4.07250000      27.27815420        2       0.00000000      -0.01591802      -0.03033710
Si       7.67917964       2.71500000      25.35835929        2       0.00000000       0.01199892      -0.01267183
Si       3.83958982       4.07250000      31.11774402        1      -0.00000000       0.29184200       0.02076463
Si       0.00000000       2.71500000      29.19794911        1      -0.00000000       0.01540587       0.14817580
Si       5.75938473       1.35750000      29.19794911        1      -0.00000000      -0.01540587       0.14817580
Si       5.75938473       0.00000000      31.11774402        1      -0.00000000      -0.29184200       0.02076463
Si       1.91979491       1.35750000      29.19794911        1      -0.00000000      -0.01540587       0.14817580
Si       1.91979491       0.00000000      31.11774402        1      -0.00000000      -0.29184200       0.02076463
Si       7.67917964       4.07250000      31.11774402        1       0.00000000       0.29184200       0.02076463
Si       3.83958982       2.71500000      29.19794911        1       0.00000000       0.01540587       0.14817580
48
Lattice="7.679179643685906 0.0 0.0 3.8395898218429525 6.650364651656329 0.0 0.0 0.0 36.458812798923255" Properties=species:S:1:pos:R:3:tags:I:1:forces:R:3 config_type=slab miller=111 energy=-252.52667500752293 label_model=mpa-0 structure_key=c06d729761970c973dd3c98c4efd38c189390924457fcc8e3dc7ecdc127007c9 pbc="T T F"
Si       0.00000000       0.00000000      10.78375299        6      -0.00000000      -0.00000000      -0.11446684
Si       3.83958982       2.21678822      10.00000000        6       0.00000000      -0.00000000      -0.12283146
Si       1.91979491       3.32518233      10.78375299        6      -0.00000000       0.00000000      -0.11446684
Si       5.75938473       5.54197054      10.00000000        6      -0.00000000       0.00000000      -0.12283146
Si       3.83958982       0.00000000      10.78375299        6      -0.00000000      -0.00000000      -0.11446684
Si       7.67917964       2.21678822      10.00000000        6       0.00000000       0.00000000      -0.12283146
Si       5.75938473       3.32518233      10.78375299        6       0.00000000      -0.00000000      -0.11446684
Si       9.59897455       5.54197054      10.00000000        6       0.00000000       0.00000000      -0.12283146
Si       7.67917964       4.43357643      13.91876495        5      -0.00000000      -0.00000000       0.01479893
Si       0.00000000       0.00000000      13.13501196        5       0.00000000      -0.00000000       0.06524322
Si       5.75938473       1.10839411      13.91876495        5      -0.00000000      -0.00000000       0.01479893
Si       1.91979491       3.32518233      13.13501196        5      -0.00000000      -0.00000000       0.06524322
Si       3.83958982       4.43357643      13.91876495        5      -0.00000000      -0.00000000       0.01479893
Si       7.67917964       6.65036465      13.13501196        5       0.00000000       0.00000000       0.06524322
Si       1.91979491       1.10839411      13.91876495        5      -0.00000000      -0.00000000       0.01479893
Si       5.75938473       3.32518233      13.13501196        5      -0.00000000      -0.00000000       0.06524322
Si       3.83958982       2.21678822      17.05377691        4      -0.00000000       0.00000000       0.00878884
Si       7.67917964       4.43357643      16.27002392        4       0.00000000      -0.00000000      -0.00491787
Si       5.75938473       5.54197054      17.05377691        4      -0.00000000      -0.00000000       0.00878884
Si       5.75938473       1.10839411      16.27002392        4       0.00000000      -0.00000000      -0.00491787
Si       7.67917964       2.21678822      17.05377691        4       0.00000000       0.00000000       0.00878884
Si       3.83958982       4.43357643      16.27002392        4       0.00000000       0.00000000      -0.00491787
Si       9.59897455       5.54197054      17.05377691        4       0.00000000      -0.00000000       0.00878884
Si       1.91979491       1.10839411      16.27002392        4       0.00000000       0.00000000      -0.00491787
Si       0.00000000       0.00000000      20.18878888        3      -0.00000000      -0.00000000       0.00491787
Si       3.83958982       2.21678822      19.40503589        3       0.00000000       0.00000000      -0.00878884
Si       1.91979491       3.32518233      20.18878888        3      -0.00000000       0.00000000       0.00491787
Si       5.75938473       5.54197054      19.40503589        3       0.00000000       0.00000000      -0.00878884
Si       3.83958982       0.00000000      20.18878888        3       0.00000000      -0.00000000       0.00491787
Si       7.67917964       2.21678822      19.40503589        3      -0.00000000       0.00000000      -0.00878884
Si       5.75938473       3.32518233      20.18878888        3       0.00000000      -0.00000000       0.00491787
Si       9.59897455       5.54197054      19.40503589        3      -0.00000000       0.00000000      -0.00878884
Si       7.67917964       4.43357643      23.32380084        2      -0.00000000       0.00000000      -0.06524322
Si       0.00000000       0.00000000      22.54004785        2       0.00000000      -0.00000000      -0.01479893
Si       5.75938473       1.10839411      23.32380084        2      -0.00000000       0.00000000      -0.06524322
Si       1.91979491       3.32518233      22.54004785        2       0.00000000      -0.00000000      -0.01479893
Si       3.83958982       4.43357643      23.32380084        2      -0.00000000      -0.00000000      -0.06524322
Si       3.83958982       0.00000000      22.54004785        2      -0.00000000       0.00000000      -0.01479893
Si       1.91979491       1.10839411      23.32380084        2       0.00000000      -0.00000000      -0.06524322
Si       5.75938473       3.32518233      22.54004785        2      -0.00000000       0.00000000      -0.01479893
Si       3.83958982       2.21678822      26.45881280        1      -0.00000000      -0.00000000       0.12283146
Si       7.67917964       4.43357643      25.67505981        1       0.00000000       0.00000000       0.11446684
Si       5.75938473       5.54197054      26.45881280        1      -0.00000000       0.00000000       0.12283146
Si       5.75938473       1.10839411      25.67505981        1       0.00000000       0.00000000       0.11446684
Si       7.67917964       2.21678822      26.45881280        1      -0.00000000      -0.00000000       0.12283146
Si       3.83958982       4.43357643      25.67505981        1       0.00000000       0.00000000       0.11446684
Si       9.59897455       5.54197054      26.45881280        1      -0.00000000      -0.00000000       0.12283146
Si       1.91979491       1.10839411      25.67505981        1       0.00000000       0.00000000       0.11446684
48
Lattice="5.43 0.0 0.0 0.0 5.43 0.0 0.0 0.0 55.2225" Properties=species:S:1:pos:R:3:tags:I:1:forces:R:3 config_type=slab miller=100 energy=-252.60249102890552 label_model=mpa-0 structure_key=8f56b911a8e98bfdf91d6b52b2ecaa77fac95ce4aa865dfa78ad8ddac09632ba pbc="T T F"
Si       1.35750000       1.35750000      13.35750000        6      -0.00000000      -0.00000000       0.13851801
Si       2.71500000       2.71500000      14.71500000        6       0.00000000       0.00000000      -0.05691596
Si       4.07250000       4.07250000      13.35750000        6      -0.00000000       0.00000000       0.13851801
Si       0.00000000       0.00000000      14.71500000        6       0.00000000       0.00000000      -0.05691596
Si       1.35750000       4.07250000      16.07250000        6      -0.00000000      -0.00000000       0.00466394
Si       2.71500000       0.00000000      12.00000000        6       0.00000000      -0.00000000      -0.30844850
Si       4.07250000       1.35750000      16.07250000        6      -0.00000000      -0.00000000       0.00466394
Si       0.00000000       2.71500000      12.00000000        6      -0.00000000       0.00000000      -0.30844850
Si       1.35750000       1.35750000      18.78750000        5      -0.00000000      -0.00000000      -0.00417746
Si       2.71500000       2.71500000      20.14500000        5       0.00000000       0.00000000       0.00062312
Si       4.07250000       4.07250000      18.78750000        5       0.00000000      -0.00000000      -0.00417746
Si       0.00000000       0.00000000      20.14500000        5      -0.00000000       0.00000000       0.00062312
Si       1.35750000       4.07250000      21.50250000        5      -0.00000000      -0.00000000      -0.00027168
Si       2.71500000       0.00000000      17.43000000        5       0.00000000      -0.00000000       0.05578913
Si       4.07250000       1.35750000      21.50250000        5      -0.00000000      -0.00000000      -0.00027168
Si       0.00000000       2.71500000      17.43000000        5       0.00000000       0.00000000       0.05578913
Si       1.35750000       1.35750000      24.21750000        4      -0.00000000      -0.00000000      -0.00018504
Si       2.71500000       2.71500000      25.57500000        4       0.00000000       0.00000000       0.00001451
Si       4.07250000       4.07250000      24.21750000        4       0.00000000      -0.00000000      -0.00018504
Si       0.00000000       0.00000000      25.57500000        4      -0.00000000      -0.00000000       0.00001451
Si       1.35750000       4.07250000      26.93250000        4      -0.00000000      -0.00000000       0.00006299
Si       2.71500000       0.00000000      22.86000000        4       0.00000000      -0.00000000      -0.00011308
Si       4.07250000       1.35750000      26.93250000        4      -0.00000000      -0.00000000       0.00006299
Si       0.00000000       2.71500000      22.86000000        4      -0.00000000       0.00000000      -0.00011308
Si       1.35750000       1.35750000      29.64750000        3      -0.00000000      -0.00000000      -0.00001451
Si       2.71500000       2.71500000      31.00500000        3       0.00000000       0.00000000       0.00018504
Si       4.07250000       4.07250000      29.64750000        3       0.00000000       0.00000000      -0.00001451
Si       0.00000000       0.00000000      31.00500000        3      -0.00000000      -0.00000000       0.00018504
Si       1.35750000       4.07250000      32.36250000        3      -0.00000000      -0.00000000       0.00011308
Si       2.71500000       0.00000000      28.29000000        3       0.00000000      -0.00000000      -0.00006299
Si       4.07250000       1.35750000      32.36250000        3      -0.00000000      -0.00000000       0.00011308
Si       0.00000000       2.71500000      28.29000000        3       0.00000000       0.00000000      -0.00006299
Si       1.35750000       1.35750000      35.07750000        2      -0.00000000      -0.00000000      -0.00062312
Si       2.71500000       2.71500000      36.43500000        2       0.00000000       0.00000000       0.00417746
Si       4.07250000       4.07250000      35.07750000        2      -0.00000000      -0.00000000      -0.00062312
Si       0.00000000       0.00000000      36.43500000        2      -0.00000000      -0.00000000       0.00417746
Si       1.35750000       4.07250000      37.79250000        2      -0.00000000      -0.00000000      -0.05578913
Si       2.71500000       0.00000000      33.72000000        2       0.00000000      -0.00000000       0.00027168
Si       4.07250000       1.35750000      37.79250000        2      -0.00000000      -0.00000000      -0.05578913
Si       0.00000000       2.71500000      33.72000000        2      -0.00000000       0.00000000       0.00027168
Si       1.35750000       1.35750000      40.50750000        1      -0.00000000      -0.00000000       0.05691596
Si       2.71500000       2.71500000      41.86500000        1      -0.00000000       0.00000000      -0.13851801
Si       4.07250000       4.07250000      40.50750000        1       0.00000000       0.00000000       0.05691596
Si       0.00000000       0.00000000      41.86500000        1      -0.00000000      -0.00000000      -0.13851801
Si       1.35750000       4.07250000      43.22250000        1       0.00000000       0.00000000       0.30844850
Si       2.71500000       0.00000000      39.15000000        1       0.00000000      -0.00000000      -0.00466394
Si       4.07250000       1.35750000      43.22250000        1       0.00000000      -0.00000000       0.30844850
Si       0.00000000       2.71500000      39.15000000        1      -0.00000000       0.00000000      -0.00466394
48
Lattice="7.679179643685906 0.0 0.0 0.0 5.43 0.0 0.0 0.0 45.11774402013624" Properties=species:S:1:pos:R:3:tags:I:1:forces:R:3 config_type=slab miller=110 energy=-252.80826261529913 label_model=mpa-0 structure_key=485e44890bc989427454598f87a214331d79b5be850085331185739aba6cf676 pbc="T T F"
Si       7.67917964       4.07250000      13.91979491        6       0.00000000      -0.01540587      -0.14817580
Si       3.83958982       2.71500000      12.00000000        6       0.00000000      -0.29184200      -0.02076463
Si       1.91979491       1.35750000      12.00000000        6      -0.00000000       0.29184200      -0.02076463
Si       1.91979491       0.00000000      13.91979491        6      -0.00000000       0.01540587      -0.14817580
Si       5.75938473       1.35750000      12.00000000        6       0.00000000       0.29184200      -0.02076463
Si       5.75938473       0.00000000      13.91979491        6      -0.00000000       0.01540587      -0.14817580
Si       3.83958982       4.07250000      13.91979491        6      -0.00000000      -0.01540587      -0.14817580
Si       0.00000000       2.71500000      12.00000000        6      -0.00000000      -0.29184200      -0.02076463
Si       3.83958982       4.07250000      17.75938473        5      -0.00000000      -0.01199892       0.01267183
Si       7.67917964       2.71500000      15.83958982        5      -0.00000000       0.01591802       0.03033710
Si       5.75938473       1.35750000      15.83958982        5       0.00000000      -0.01591802       0.03033710
Si       5.75938473       0.00000000      17.75938473        5       0.00000000       0.01199892       0.01267183
Si       1.91979491       1.35750000      15.83958982        5       0.00000000      -0.01591802       0.03033710
Si       1.91979491       0.00000000      17.75938473        5      -0.00000000       0.01199892       0.01267183
Si       7.67917964       4.07250000      17.75938473        5       0.00000000      -0.01199892       0.01267183
Si       3.83958982       2.71500000      15.83958982        5       0.00000000       0.01591802       0.03033710
Si       7.67917964       4.07250000      21.59897455        4       0.00000000      -0.00071965       0.00003928
Si       3.83958982       2.71500000      19.67917964        4      -0.00000000       0.00126359       0.00512320
Si       1.91979491       1.35750000      19.67917964        4       0.00000000      -0.00126359       0.00512320
Si       1.91979491       0.00000000      21.59897455        4       0.00000000       0.00071965       0.00003928
Si       5.75938473       1.35750000      19.67917964        4      -0.00000000      -0.00126359       0.00512320
Si       5.75938473       0.00000000      21.59897455        4       0.00000000       0.00071965       0.00003928
Si       3.83958982       4.07250000      21.59897455        4      -0.00000000      -0.00071965       0.00003928
Si       7.67917964       2.71500000      19.67917964        4       0.00000000       0.00126359       0.00512320
Si       3.83958982       4.07250000      25.43856438        3      -0.00000000      -0.00126359      -0.00512320
Si       7.67917964       2.71500000      23.51876947        3       0.00000000       0.00071965      -0.00003928
Si       5.75938473       1.35750000      23.51876947        3       0.00000000      -0.00071965      -0.00003928
Si       5.75938473       0.00000000      25.43856438        3      -0.00000000       0.00126359      -0.00512320
Si       1.91979491       1.35750000      23.51876947        3      -0.00000000      -0.00071965      -0.00003928
Si       1.91979491       0.00000000      25.43856438        3       0.00000000       0.00126359      -0.00512320
Si       7.67917964       4.07250000      25.43856438        3       0.00000000      -0.00126359      -0.00512320
Si       3.83958982       2.71500000      23.51876947        3      -0.00000000       0.00071965      -0.00003928
Si       0.00000000       4.07250000      29.27815420        2      -0.00000000      -0.01591802      -0.03033710
Si       3.83958982       2.71500000      27.35835929        2       0.00000000       0.01199892      -0.01267183
Si       1.91979491       1.35750000      27.35835929        2      -0.00000000      -0.01199892      -0.01267183
Si       1.91979491       0.00000000      29.27815420        2      -0.00000000       0.01591802      -0.03033710
Si       5.75938473       1.35750000      27.35835929        2       0.00000000      -0.01199892      -0.01267183
Si       5.75938473       0.00000000      29.27815420        2      -0.00000000       0.01591802      -0.03033710
Si       3.83958982       4.07250000      29.27815420        2       0.00000000      -0.01591802      -0.03033710
Si       7.67917964       2.71500000      27.35835929        2       0.00000000       0.01199892      -0.01267183
Si       3.83958982       4.07250000      33.11774402        1      -0.00000000       0.29184200       0.02076463
Si       0.00000000       2.71500000      31.19794911        1      -0.00000000       0.01540587       0.14817580
Si       5.75938473       1.35750000      31.19794911        1      -0.00000000      -0.01540587       0.14817580
Si       5.75938473       0.00000000      33.11774402        1      -0.00000000      -0.29184200       0.02076463
Si       1.91979491       1.35750000      31.19794911        1      -0.00000000      -0.01540587       0.14817580
Si       1.91979491       0.00000000      33.11774402        1      -0.00000000      -0.29184200       0.02076463
Si       7.67917964       4.07250000      33.11774402        1       0.00000000       0.29184200       0.02076463
Si       3.83958982       2.71500000      31.19794911        1       0.00000000       0.01540587       0.14817580
48
Lattice="7.679179643685906 0.0 0.0 3.8395898218429525 6.650364651656329 0.0 0.0 0.0 40.458812798923255" Properties=species:S:1:pos:R:3:tags:I:1:forces:R:3 config_type=slab miller=111 energy=-252.52667500752293 label_model=mpa-0 structure_key=a7c77aab23a6d7cc14491914498d473b143f62d21a7679864cddad10ac2779a9 pbc="T T F"
Si       0.00000000       0.00000000      12.78375299        6      -0.00000000      -0.00000000      -0.11446684
Si       3.83958982       2.21678822      12.00000000        6       0.00000000      -0.00000000      -0.12283146
Si       1.91979491       3.32518233      12.78375299        6      -0.00000000       0.00000000      -0.11446684
Si       5.75938473       5.54197054      12.00000000        6      -0.00000000       0.00000000      -0.12283146
Si       3.83958982       0.00000000      12.78375299        6      -0.00000000      -0.00000000      -0.11446684
Si       7.67917964       2.21678822      12.00000000        6       0.00000000       0.00000000      -0.12283146
Si       5.75938473       3.32518233      12.78375299        6       0.00000000      -0.00000000      -0.11446684
Si       9.59897455       5.54197054      12.00000000        6       0.00000000       0.00000000      -0.12283146
Si       7.67917964       4.43357643      15.91876495        5      -0.00000000      -0.00000000       0.01479893
Si       0.00000000       0.00000000      15.13501196        5       0.00000000      -0.00000000       0.06524322
Si       5.75938473       1.10839411      15.91876495        5      -0.00000000      -0.00000000       0.01479893
Si       1.91979491       3.32518233      15.13501196        5      -0.00000000      -0.00000000       0.06524322
Si       3.83958982       4.43357643      15.91876495        5      -0.00000000      -0.00000000       0.01479893
Si       7.67917964       6.65036465      15.13501196        5       0.00000000       0.00000000       0.06524322
Si       1.91979491       1.10839411      15.91876495        5      -0.00000000      -0.00000000       0.01479893
Si       5.75938473       3.32518233      15.13501196        5      -0.00000000       0.00000000       0.06524322
Si       3.83958982       2.21678822      19.05377691        4      -0.00000000       0.00000000       0.00878884
Si       7.67917964       4.43357643      18.27002392        4       0.00000000       0.00000000      -0.00491787
Si       5.75938473       5.54197054      19.05377691        4      -0.00000000      -0.00000000       0.00878884
Si       5.75938473       1.10839411      18.27002392        4       0.00000000      -0.00000000      -0.00491787
Si       7.67917964       2.21678822      19.05377691        4       0.00000000       0.00000000       0.00878884
Si       3.83958982       4.43357643      18.27002392        4       0.00000000       0.00000000      -0.00491787
Si       9.59897455       5.54197054      19.05377691        4       0.00000000      -0.00000000       0.00878884
Si       1.91979491       1.10839411      18.27002392        4       0.00000000       0.00000000      -0.00491787
Si       0.00000000       0.00000000      22.18878888        3      -0.00000000      -0.00000000       0.00491787
Si       3.83958982       2.21678822      21.40503589        3       0.00000000      -0.00000000      -0.00878884
Si       1.91979491       3.32518233      22.18878888        3      -0.00000000       0.00000000       0.00491787
Si       5.75938473       5.54197054      21.40503589        3       0.00000000       0.00000000      -0.00878884
Si       3.83958982       0.00000000      22.18878888        3       0.00000000       0.00000000       0.00491787
Si       7.67917964       2.21678822      21.40503589        3      -0.00000000       0.00000000      -0.00878884
Si       5.75938473       3.32518233      22.18878888        3       0.00000000      -0.00000000       0.00491787
Si       9.59897455       5.54197054      21.40503589        3       0.00000000       0.00000000      -0.00878884
Si       7.67917964       4.43357643      25.32380084        2      -0.00000000       0.00000000      -0.06524322
Si       0.00000000       0.00000000      24.54004785        2       0.00000000      -0.00000000      -0.01479893
Si       5.75938473       1.10839411      25.32380084        2      -0.00000000       0.00000000      -0.06524322
Si       1.91979491       3.32518233      24.54004785        2       0.00000000      -0.00000000      -0.01479893
Si       3.83958982       4.43357643      25.32380084        2      -0.00000000      -0.00000000      -0.06524322
Si       3.83958982       0.00000000      24.54004785        2      -0.00000000       0.00000000      -0.01479893
Si       1.91979491       1.10839411      25.32380084        2       0.00000000      -0.00000000      -0.06524322
Si       5.75938473       3.32518233      24.54004785        2       0.00000000       0.00000000      -0.01479893
Si       3.83958982       2.21678822      28.45881280        1      -0.00000000      -0.00000000       0.12283146
Si       7.67917964       4.43357643      27.67505981        1       0.00000000       0.00000000       0.11446684
Si       5.75938473       5.54197054      28.45881280        1      -0.00000000       0.00000000       0.12283146
Si       5.75938473       1.10839411      27.67505981        1       0.00000000       0.00000000       0.11446684
Si       7.67917964       2.21678822      28.45881280        1      -0.00000000      -0.00000000       0.12283146
Si       3.83958982       4.43357643      27.67505981        1       0.00000000       0.00000000       0.11446684
Si       9.59897455       5.54197054      28.45881280        1      -0.00000000      -0.00000000       0.12283146
Si       1.91979491       1.10839411      27.67505981        1       0.00000000       0.00000000       0.11446684
64
Lattice="5.43 0.0 0.0 0.0 5.43 0.0 0.0 0.0 54.082499999999996" Properties=species:S:1:pos:R:3:tags:I:1:forces:R:3 config_type=slab miller=100 energy=-339.20060804590884 label_model=mpa-0 structure_key=f44c3de02f17881b8db19c1a25582096ce261bf6951943119cfc07ee043d395f pbc="T T F"
Si       1.35750000       1.35750000       7.35750000        8      -0.00000000       0.00000000       0.13851801
Si       2.71500000       2.71500000       8.71500000        8       0.00000000       0.00000000      -0.05691596
Si       4.07250000       4.07250000       7.35750000        8      -0.00000000       0.00000000       0.13851801
Si       0.00000000       0.00000000       8.71500000        8       0.00000000      -0.00000000      -0.05691596
Si       1.35750000       4.07250000      10.07250000        8      -0.00000000      -0.00000000       0.00466394
Si       2.71500000       0.00000000       6.00000000        8       0.00000000      -0.00000000      -0.30844850
Si       4.07250000       1.35750000      10.07250000        8       0.00000000       0.00000000       0.00466394
Si       0.00000000       2.71500000       6.00000000        8      -0.00000000      -0.00000000      -0.30844850
Si       1.35750000       1.35750000      12.78750000        7      -0.00000000      -0.00000000      -0.00417746
Si       2.71500000       2.71500000      14.14500000        7       0.00000000       0.00000000       0.00062312
Si       4.07250000       4.07250000      12.78750000        7       0.00000000      -0.00000000      -0.00417746
Si       0.00000000       0.00000000      14.14500000        7      -0.00000000       0.00000000       0.00062312
Si       1.35750000       4.07250000      15.50250000        7      -0.00000000      -0.00000000      -0.00027168
Si       2.71500000       0.00000000      11.43000000        7       0.00000000      -0.00000000       0.05578913
Si       4.07250000       1.35750000      15.50250000        7      -0.00000000      -0.00000000      -0.00027168
Si       0.00000000       2.71500000      11.43000000        7      -0.00000000       0.00000000       0.05578913
Si       1.35750000       1.35750000      18.21750000        6      -0.00000000      -0.00000000      -0.00018536
Si       2.71500000       2.71500000      19.57500000        6       0.00000000       0.00000000       0.00001324
Si       4.07250000       4.07250000      18.21750000        6      -0.00000000      -0.00000000      -0.00018536
Si       0.00000000       0.00000000      19.57500000        6       0.00000000      -0.00000000       0.00001324
Si       1.35750000       4.07250000      20.93250000        6      -0.00000000      -0.00000000       0.00006052
Si       2.71500000       0.00000000      16.86000000        6       0.00000000      -0.00000000      -0.00011309
Si       4.07250000       1.35750000      20.93250000        6      -0.00000000      -0.00000000       0.00006052
Si       0.00000000       2.71500000      16.86000000        6      -0.00000000       0.00000000      -0.00011309
Si       1.35750000       1.35750000      23.64750000        5      -0.00000000      -0.00000000      -0.00000127
Si       2.71500000       2.71500000      25.00500000        5       0.00000000       0.00000000      -0.00000032
Si       4.07250000       4.07250000      23.64750000        5      -0.00000000       0.00000000      -0.00000127
Si       0.00000000       0.00000000      25.00500000        5       0.00000000      -0.00000000      -0.00000032
Si       1.35750000       4.07250000      26.36250000        5      -0.00000000      -0.00000000      -0.00000001
Si       2.71500000       0.00000000      22.29000000        5       0.00000000      -0.00000000      -0.00000247
Si       4.07250000       1.35750000      26.36250000        5      -0.00000000      -0.00000000      -0.00000001
Si       0.00000000       2.71500000      22.29000000        5      -0.00000000       0.00000000      -0.00000247
Si       1.35750000       1.35750000      29.07750000        4      -0.00000000      -0.00000000       0.00000032
Si       2.71500000       2.71500000      30.43500000        4       0.00000000       0.00000000       0.00000127
Si       4.07250000       4.07250000      29.07750000        4      -0.00000000       0.00000000       0.00000032
Si       0.00000000       0.00000000      30.43500000        4       0.00000000      -0.00000000       0.00000127
Si       1.35750000       4.07250000      31.79250000        4      -0.00000000      -0.00000000       0.00000247
Si       2.71500000       0.00000000      27.72000000        4       0.00000000      -0.00000000       0.00000001
Si       4.07250000       1.35750000      31.79250000        4      -0.00000000      -0.00000000       0.00000247
Si       0.00000000       2.71500000      27.72000000        4      -0.00000000       0.00000000       0.00000001
Si       1.35750000       1.35750000      34.50750000        3       0.00000000       0.00000000      -0.00001324
Si       2.71500000       2.71500000      35.86500000        3       0.00000000       0.00000000       0.00018536
Si       4.07250000       4.07250000      34.50750000        3      -0.00000000      -0.00000000      -0.00001324
Si       0.00000000       0.00000000      35.86500000        3      -0.00000000      -0.00000000       0.00018536
Si       1.35750000       4.07250000      37.22250000        3      -0.00000000      -0.00000000       0.00011309
Si       2.71500000       0.00000000      33.15000000        3       0.00000000      -0.00000000      -0.00006052
Si       4.07250000       1.35750000      37.22250000        3      -0.00000000      -0.00000000       0.00011309
Si       0.00000000       2.71500000      33.15000000        3      -0.00000000       0.00000000      -0.00006052
Si       1.35750000       1.35750000      39.93750000        2      -0.00000000      -0.00000000      -0.00062312
Si       2.71500000       2.71500000      41.29500000        2       0.00000000       0.00000000       0.00417746
Si       4.07250000       4.07250000      39.93750000        2      -0.00000000       0.00000000      -0.00062312
Si       0.00000000       0.00000000      41.29500000        2      -0.00000000       0.00000000       0.00417746
Si       1.35750000       4.07250000      42.65250000        2      -0.00000000      -0.00000000      -0.05578913
Si       2.71500000       0.00000000      38.58000000        2       0.00000000      -0.00000000       0.00027168
Si       4.07250000       1.35750000      42.65250000        2      -0.00000000      -0.00000000      -0.05578913
Si       0.00000000       2.71500000      38.58000000        2      -0.00000000       0.00000000       0.00027168
Si       1.35750000       1.35750000      45.36750000        1       0.00000000      -0.00000000       0.05691596
Si       2.71500000       2.71500000      46.72500000        1       0.00000000       0.00000000      -0.13851801
Si       4.07250000       4.07250000      45.36750000        1       0.00000000      -0.00000000       0.05691596
Si       0.00000000       0.00000000      46.72500000        1       0.00000000      -0.00000000      -0.13851801
Si       1.35750000       4.07250000      48.08250000        1       0.00000000       0.00000000       0.30844850
Si       2.71500000       0.00000000      44.01000000        1       0.00000000       0.00000000      -0.00466394
Si       4.07250000       1.35750000      48.08250000        1      -0.00000000       0.00000000       0.30844850
Si       0.00000000       2.71500000      44.01000000        1       0.00000000       0.00000000      -0.00466394
64
Lattice="7.679179643685906 0.0 0.0 0.0 5.43 0.0 0.0 0.0 40.79692366382215" Properties=species:S:1:pos:R:3:tags:I:1:forces:R:3 config_type=slab miller=110 energy=-339.40637963230256 label_model=mpa-0 structure_key=73a11ec251d003fc2484bbf076421144e6f81485e2f9ebd903b59b3c99dfe034 pbc="T T F"
Si       7.67917964       4.07250000       7.91979491        8       0.00000000      -0.01540587      -0.14817580
Si       3.83958982       2.71500000       6.00000000        8      -0.00000000      -0.29184200      -0.02076463
Si       1.91979491       1.35750000       6.00000000        8      -0.00000000       0.29184200      -0.02076463
Si       1.91979491       0.00000000       7.91979491        8      -0.00000000       0.01540587      -0.14817580
Si       5.75938473       1.35750000       6.00000000        8       0.00000000       0.29184200      -0.02076463
Si       5.75938473       0.00000000       7.91979491        8      -0.00000000       0.01540587      -0.14817580
Si       3.83958982       4.07250000       7.91979491        8      -0.00000000      -0.01540587      -0.14817580
Si       0.00000000       2.71500000       6.00000000        8      -0.00000000      -0.29184200      -0.02076463
Si       3.83958982       4.07250000      11.75938473        7       0.00000000      -0.01199832       0.01266924
Si       7.67917964       2.71500000       9.83958982        7      -0.00000000       0.01591802       0.03033708
Si       5.75938473       1.35750000       9.83958982        7       0.00000000      -0.01591802       0.03033708
Si       5.75938473       0.00000000      11.75938473        7       0.00000000       0.01199832       0.01266924
Si       1.91979491       1.35750000       9.83958982        7       0.00000000      -0.01591802       0.03033708
Si       1.91979491       0.00000000      11.75938473        7      -0.00000000       0.01199832       0.01266924
Si       7.67917964       4.07250000      11.75938473        7      -0.00000000      -0.01199832       0.01266924
Si       3.83958982       2.71500000       9.83958982        7       0.00000000       0.01591802       0.03033708
Si       7.67917964       4.07250000      15.59897455        6      -0.00000000      -0.00070815       0.00018851
Si       3.83958982       2.71500000      13.67917964        6      -0.00000000       0.00125575       0.00509857
Si       1.91979491       1.35750000      13.67917964        6       0.00000000      -0.00125575       0.00509857
Si       1.91979491       0.00000000      15.59897455        6      -0.00000000       0.00070815       0.00018851
Si       5.75938473       1.35750000      13.67917964        6       0.00000000      -0.00125575       0.00509857
Si       5.75938473       0.00000000      15.59897455        6      -0.00000000       0.00070815       0.00018851
Si       3.83958982       4.07250000      15.59897455        6       0.00000000      -0.00070815       0.00018851
Si       7.67917964       2.71500000      13.67917964        6       0.00000000       0.00125575       0.00509857
Si       3.83958982       4.07250000      19.43856438        5      -0.00000000      -0.00000843      -0.00002204
Si       7.67917964       2.71500000      17.51876947        5      -0.00000000       0.00001150       0.00014925
Si       5.75938473       1.35750000      17.51876947        5       0.00000000      -0.00001150       0.00014925
Si       5.75938473       0.00000000      19.43856438        5      -0.00000000       0.00000843      -0.00002204
Si       1.91979491       1.35750000      17.51876947        5      -0.00000000      -0.00001150       0.00014925
Si       1.91979491       0.00000000      19.43856438        5       0.00000000       0.00000843      -0.00002204
Si       7.67917964       4.07250000      19.43856438        5       0.00000000      -0.00000843      -0.00002204
Si       3.83958982       2.71500000      17.51876947        5       0.00000000       0.00001150       0.00014925
Si       0.00000000       4.07250000      23.27815420        4       0.00000000      -0.00001150      -0.00014925
Si       3.83958982       2.71500000      21.35835929        4       0.00000000       0.00000843       0.00002204
Si       1.91979491       1.35750000      21.35835929        4      -0.00000000      -0.00000843       0.00002204
Si       1.91979491       0.00000000      23.27815420        4      -0.00000000       0.00001150      -0.00014925
Si       5.75938473       1.35750000      21.35835929        4      -0.00000000      -0.00000843       0.00002204
Si       5.75938473       0.00000000      23.27815420        4      -0.00000000       0.00001150      -0.00014925
Si       3.83958982       4.07250000      23.27815420        4       0.00000000      -0.00001150      -0.00014925
Si       7.67917964       2.71500000      21.35835929        4      -0.00000000       0.00000843       0.00002204
Si       3.83958982       4.07250000      27.11774402        3       0.00000000      -0.00125575      -0.00509857
Si       0.00000000       2.71500000      25.19794911        3      -0.00000000       0.00070815      -0.00018851
Si       5.75938473       1.35750000      25.19794911        3      -0.00000000      -0.00070815      -0.00018851
Si       5.75938473       0.00000000      27.11774402        3      -0.00000000       0.00125575      -0.00509857
Si       1.91979491       1.35750000      25.19794911        3      -0.00000000      -0.00070815      -0.00018851
Si       1.91979491       0.00000000      27.11774402        3      -0.00000000       0.00125575      -0.00509857
Si       7.67917964       4.07250000      27.11774402        3       0.00000000      -0.00125575      -0.00509857
Si       3.83958982       2.71500000      25.19794911        3       0.00000000       0.00070815      -0.00018851
Si       0.00000000       4.07250000      30.95733384        2      -0.00000000      -0.01591802      -0.03033708
Si       3.83958982       2.71500000      29.03753893        2       0.00000000       0.01199832      -0.01266924
Si       1.91979491       1.35750000      29.03753893        2      -0.00000000      -0.01199832      -0.01266924
Si       1.91979491       0.00000000      30.95733384        2       0.00000000       0.01591802      -0.03033708
Si       5.75938473       1.35750000      29.03753893        2      -0.00000000      -0.01199832      -0.01266924
Si       5.75938473       0.00000000      30.95733384        2      -0.00000000       0.01591802      -0.03033708
Si       3.83958982       4.07250000      30.95733384        2       0.00000000      -0.01591802      -0.03033708
Si       7.67917964       2.71500000      29.03753893        2       0.00000000       0.01199832      -0.01266924
Si       3.83958982       4.07250000      34.79692366        1      -0.00000000       0.29184200       0.02076463
Si       0.00000000       2.71500000      32.87712875        1      -0.00000000       0.01540587       0.14817580
Si       5.75938473       1.35750000      32.87712875        1      -0.00000000      -0.01540587       0.14817580
Si       5.75938473       0.00000000      34.79692366        1       0.00000000      -0.29184200       0.02076463
Si       1.91979491       1.35750000      32.87712875        1       0.00000000      -0.01540587       0.14817580
Si       1.91979491       0.00000000      34.79692366        1      -0.00000000      -0.29184200       0.02076463
Si       7.67917964       4.07250000      34.79692366        1       0.00000000       0.29184200       0.02076463
Si       3.83958982       2.71500000      32.87712875        1       0.00000000       0.01540587       0.14817580
64
Lattice="7.679179643685906 0.0 0.0 3.8395898218429525 6.650364651656329 0.0 0.0 0.0 34.72883672232258" Properties=species:S:1:pos:R:3:tags:I:1:forces:R:3 config_type=slab miller=111 energy=-339.1247920245262 label_model=mpa-0 structure_key=c447798e695c946ed5f75605cedc727f97dd8fca59cbad8d58e643625cfaf348 pbc="T T F"
Si       3.83958982       6.65036465       6.78375299        8      -0.00000000       0.00000000      -0.11446712
Si       3.83958982       2.21678822       6.00000000        8       0.00000000      -0.00000000      -0.12283146
Si       1.91979491       3.32518233       6.78375299        8      -0.00000000       0.00000000      -0.11446712
Si       5.75938473       5.54197054       6.00000000        8       0.00000000      -0.00000000      -0.12283146
Si       7.67917964       6.65036465       6.78375299        8       0.00000000       0.00000000      -0.11446712
Si       7.67917964       2.21678822       6.00000000        8       0.00000000       0.00000000      -0.12283146
Si       5.75938473       3.32518233       6.78375299        8      -0.00000000      -0.00000000      -0.11446712
Si       9.59897455       5.54197054       6.00000000        8      -0.00000000      -0.00000000      -0.12283146
Si       7.67917964       4.43357643       9.91876495        7       0.00000000      -0.00000000       0.01485070
Si       3.83958982       6.65036465       9.13501196        7       0.00000000      -0.00000000       0.06524359
Si       5.75938473       1.10839411       9.91876495        7      -0.00000000       0.00000000       0.01485070
Si       1.91979491       3.32518233       9.13501196        7       0.00000000      -0.00000000       0.06524359
Si       3.83958982       4.43357643       9.91876495        7      -0.00000000       0.00000000       0.01485070
Si       7.67917964       6.65036465       9.13501196        7      -0.00000000       0.00000000       0.06524359
Si       1.91979491       1.10839411       9.91876495        7      -0.00000000      -0.00000000       0.01485070
Si       5.75938473       3.32518233       9.13501196        7       0.00000000       0.00000000       0.06524359
Si       3.83958982       2.21678822      13.05377691        6      -0.00000000       0.00000000       0.01073095
Si       7.67917964       4.43357643      12.27002392        6       0.00000000       0.00000000      -0.00402519
Si       5.75938473       5.54197054      13.05377691        6      -0.00000000      -0.00000000       0.01073095
Si       5.75938473       1.10839411      12.27002392        6       0.00000000      -0.00000000      -0.00402519
Si       7.67917964       2.21678822      13.05377691        6      -0.00000000      -0.00000000       0.01073095
Si       3.83958982       4.43357643      12.27002392        6       0.00000000       0.00000000      -0.00402519
Si       9.59897455       5.54197054      13.05377691        6      -0.00000000       0.00000000       0.01073095
Si       1.91979491       1.10839411      12.27002392        6       0.00000000       0.00000000      -0.00402519
Si       3.83958982       6.65036465      16.18878888        5       0.00000000      -0.00000000       0.00084091
Si       3.83958982       2.21678822      15.40503589        5       0.00000000      -0.00000000       0.00194146
Si       1.91979491       3.32518233      16.18878888        5      -0.00000000       0.00000000       0.00084091
Si       5.75938473       5.54197054      15.40503589        5      -0.00000000      -0.00000000       0.00194146
Si       7.67917964       6.65036465      16.18878888        5       0.00000000       0.00000000       0.00084091
Si       7.67917964       2.21678822      15.40503589        5      -0.00000000       0.00000000       0.00194146
Si       5.75938473       3.32518233      16.18878888        5       0.00000000       0.00000000       0.00084091
Si       9.59897455       5.54197054      15.40503589        5      -0.00000000      -0.00000000       0.00194146
Si       7.67917964       4.43357643      19.32380084        4      -0.00000000      -0.00000000      -0.00194146
Si       3.83958982       6.65036465      18.54004785        4       0.00000000      -0.00000000      -0.00084091
Si       5.75938473       1.10839411      19.32380084        4      -0.00000000       0.00000000      -0.00194146
Si       1.91979491       3.32518233      18.54004785        4       0.00000000       0.00000000      -0.00084091
Si       3.83958982       4.43357643      19.32380084        4       0.00000000      -0.00000000      -0.00194146
Si       7.67917964       6.65036465      18.54004785        4       0.00000000       0.00000000      -0.00084091
Si       1.91979491       1.10839411      19.32380084        4      -0.00000000      -0.00000000      -0.00194146
Si       5.75938473       3.32518233      18.54004785        4      -0.00000000       0.00000000      -0.00084091
Si       3.83958982       2.21678822      22.45881280        3      -0.00000000      -0.00000000       0.00402519
Si       7.67917964       4.43357643      21.67505981        3       0.00000000      -0.00000000      -0.01073095
Si       5.75938473       5.54197054      22.45881280        3      -0.00000000       0.00000000       0.00402519
Si       5.75938473       1.10839411      21.67505981        3       0.00000000      -0.00000000      -0.01073095
Si       7.67917964       2.21678822      22.45881280        3       0.00000000      -0.00000000       0.00402519
Si       3.83958982       4.43357643      21.67505981        3       0.00000000       0.00000000      -0.01073095
Si       9.59897455       5.54197054      22.45881280        3      -0.00000000      -0.00000000       0.00402519
Si       1.91979491       1.10839411      21.67505981        3       0.00000000       0.00000000      -0.01073095
Si       3.83958982       6.65036465      25.59382476        2       0.00000000       0.00000000      -0.06524359
Si       3.83958982       2.21678822      24.81007177        2       0.00000000       0.00000000      -0.01485070
Si       1.91979491       3.32518233      25.59382476        2      -0.00000000       0.00000000      -0.06524359
Si       5.75938473       5.54197054      24.81007177        2      -0.00000000       0.00000000      -0.01485070
Si       7.67917964       6.65036465      25.59382476        2      -0.00000000       0.00000000      -0.06524359
Si       7.67917964       2.21678822      24.81007177        2       0.00000000       0.00000000      -0.01485070
Si       5.75938473       3.32518233      25.59382476        2      -0.00000000      -0.00000000      -0.06524359
Si       9.59897455       5.54197054      24.81007177        2      -0.00000000      -0.00000000      -0.01485070
Si       7.67917964       4.43357643      28.72883672        1       0.00000000      -0.00000000       0.12283146
Si       3.83958982       6.65036465      27.94508373        1       0.00000000       0.00000000       0.11446712
Si       5.75938473       1.10839411      28.72883672        1      -0.00000000       0.00000000       0.12283146
Si       1.91979491       3.32518233      27.94508373        1       0.00000000      -0.00000000       0.11446712
Si       3.83958982       4.43357643      28.72883672        1       0.00000000      -0.00000000       0.12283146
Si       7.67917964       6.65036465      27.94508373        1       0.00000000       0.00000000       0.11446712
Si       1.91979491       1.10839411      28.72883672        1       0.00000000      -0.00000000       0.12283146
Si       5.75938473       3.32518233      27.94508373        1      -0.00000000       0.00000000       0.11446712
64
Lattice="5.43 0.0 0.0 0.0 5.43 0.0 0.0 0.0 58.082499999999996" Properties=species:S:1:pos:R:3:tags:I:1:forces:R:3 config_type=slab miller=100 energy=-339.2006080459088 label_model=mpa-0 structure_key=bf4eb614ec7358c1530d53ce501d8f4c67a98d33ac01c75ad4ff423ae9f5a390 pbc="T T F"
Si       1.35750000       1.35750000       9.35750000        8      -0.00000000       0.00000000       0.13851801
Si       2.71500000       2.71500000      10.71500000        8       0.00000000       0.00000000      -0.05691596
Si       4.07250000       4.07250000       9.35750000        8       0.00000000      -0.00000000       0.13851801
Si       0.00000000       0.00000000      10.71500000        8      -0.00000000      -0.00000000      -0.05691596
Si       1.35750000       4.07250000      12.07250000        8      -0.00000000       0.00000000       0.00466394
Si       2.71500000       0.00000000       8.00000000        8       0.00000000      -0.00000000      -0.30844850
Si       4.07250000       1.35750000      12.07250000        8      -0.00000000       0.00000000       0.00466394
Si       0.00000000       2.71500000       8.00000000        8      -0.00000000       0.00000000      -0.30844850
Si       1.35750000       1.35750000      14.78750000        7       0.00000000      -0.00000000      -0.00417746
Si       2.71500000       2.71500000      16.14500000        7       0.00000000       0.00000000       0.00062312
Si       4.07250000       4.07250000      14.78750000        7      -0.00000000       0.00000000      -0.00417746
Si       0.00000000       0.00000000      16.14500000        7       0.00000000      -0.00000000       0.00062312
Si       1.35750000       4.07250000      17.50250000        7      -0.00000000      -0.00000000      -0.00027168
Si       2.71500000       0.00000000      13.43000000        7       0.00000000       0.00000000       0.05578913
Si       4.07250000       1.35750000      17.50250000        7      -0.00000000      -0.00000000      -0.00027168
Si       0.00000000       2.71500000      13.43000000        7      -0.00000000       0.00000000       0.05578913
Si       1.35750000       1.35750000      20.21750000        6      -0.00000000      -0.00000000      -0.00018536
Si       2.71500000       2.71500000      21.57500000        6       0.00000000       0.00000000       0.00001324
Si       4.07250000       4.07250000      20.21750000        6       0.00000000      -0.00000000      -0.00018536
Si       0.00000000       0.00000000      21.57500000        6      -0.00000000      -0.00000000       0.00001324
Si       1.35750000       4.07250000      22.93250000        6      -0.00000000      -0.00000000       0.00006052
Si       2.71500000       0.00000000      18.86000000        6       0.00000000       0.00000000      -0.00011309
Si       4.07250000       1.35750000      22.93250000        6      -0.00000000      -0.00000000       0.00006052
Si       0.00000000       2.71500000      18.86000000        6      -0.00000000       0.00000000      -0.00011309
Si       1.35750000       1.35750000      25.64750000        5      -0.00000000      -0.00000000      -0.00000127
Si       2.71500000       2.71500000      27.00500000        5       0.00000000       0.00000000      -0.00000032
Si       4.07250000       4.07250000      25.64750000        5       0.00000000       0.00000000      -0.00000127
Si       0.00000000       0.00000000      27.00500000        5      -0.00000000      -0.00000000      -0.00000032
Si       1.35750000       4.07250000      28.36250000        5      -0.00000000      -0.00000000      -0.00000001
Si       2.71500000       0.00000000      24.29000000        5       0.00000000      -0.00000000      -0.00000247
Si       4.07250000       1.35750000      28.36250000        5      -0.00000000      -0.00000000      -0.00000001
Si       0.00000000       2.71500000      24.29000000        5      -0.00000000       0.00000000      -0.00000247
Si       1.35750000       1.35750000      31.07750000        4      -0.00000000      -0.00000000       0.00000032
Si       2.71500000       2.71500000      32.43500000        4       0.00000000       0.00000000       0.00000127
Si       4.07250000       4.07250000      31.07750000        4       0.00000000      -0.00000000       0.00000032
Si       0.00000000       0.00000000      32.43500000        4       0.00000000      -0.00000000       0.00000127
Si       1.35750000       4.07250000      33.79250000        4       0.00000000       0.00000000       0.00000247
Si       2.71500000       0.00000000      29.72000000        4       0.00000000       0.00000000       0.00000001
Si       4.07250000       1.35750000      33.79250000        4      -0.00000000      -0.00000000       0.00000247
Si       0.00000000       2.71500000      29.72000000        4      -0.00000000       0.00000000       0.00000001
Si       1.35750000       1.35750000      36.50750000        3       0.00000000       0.00000000      -0.00001324
Si       2.71500000       2.71500000      37.86500000        3       0.00000000       0.00000000       0.00018536
Si       4.07250000       4.07250000      36.50750000        3      -0.00000000      -0.00000000      -0.00001324
Si       0.00000000       0.00000000      37.86500000        3      -0.00000000      -0.00000000       0.00018536
Si       1.35750000       4.07250000      39.22250000        3      -0.00000000      -0.00000000       0.00011309
Si       2.71500000       0.00000000      35.15000000        3       0.00000000      -0.00000000      -0.00006052
Si       4.07250000       1.35750000      39.22250000        3      -0.00000000      -0.00000000       0.00011309
Si       0.00000000       2.71500000      35.15000000        3      -0.00000000       0.00000000      -0.00006052
Si       1.35750000       1.35750000      41.93750000        2      -0.00000000      -0.00000000      -0.00062312
Si       2.71500000       2.71500000      43.29500000        2       0.00000000       0.00000000       0.00417746
Si       4.07250000       4.07250000      41.93750000        2      -0.00000000      -0.00000000      -0.00062312
Si       0.00000000       0.00000000      43.29500000        2      -0.00000000       0.00000000       0.00417746
Si       1.35750000       4.07250000      44.65250000        2      -0.00000000      -0.00000000      -0.05578913
Si       2.71500000       0.00000000      40.58000000        2       0.00000000      -0.00000000       0.00027168
Si       4.07250000       1.35750000      44.65250000        2      -0.00000000      -0.00000000      -0.05578913
Si       0.00000000       2.71500000      40.58000000        2      -0.00000000       0.00000000       0.00027168
Si       1.35750000       1.35750000      47.36750000        1       0.00000000       0.00000000       0.05691596
Si       2.71500000       2.71500000      48.72500000        1       0.00000000       0.00000000      -0.13851801
Si       4.07250000       4.07250000      47.36750000        1      -0.00000000      -0.00000000       0.05691596
Si       0.00000000       0.00000000      48.72500000        1      -0.00000000       0.00000000      -0.13851801
Si       1.35750000       4.07250000      50.08250000        1       0.00000000      -0.00000000       0.30844850
Si       2.71500000       0.00000000      46.01000000        1       0.00000000       0.00000000      -0.00466394
Si       4.07250000       1.35750000      50.08250000        1      -0.00000000      -0.00000000       0.30844850
Si       0.00000000       2.71500000      46.01000000        1       0.00000000       0.00000000      -0.00466394
64
Lattice="7.679179643685906 0.0 0.0 0.0 5.43 0.0 0.0 0.0 44.79692366382215" Properties=species:S:1:pos:R:3:tags:I:1:forces:R:3 config_type=slab miller=110 energy=-339.40637963230245 label_model=mpa-0 structure_key=6542eefab2222262b0d94aa8dcdd25f4132d0e3d9cd52d15f79716e87e242c4e pbc="T T F"
Si       7.67917964       4.07250000       9.91979491        8       0.00000000      -0.01540587      -0.14817580
Si       3.83958982       2.71500000       8.00000000        8      -0.00000000      -0.29184200      -0.02076463
Si       1.91979491       1.35750000       8.00000000        8      -0.00000000       0.29184200      -0.02076463
Si       1.91979491       0.00000000       9.91979491        8       0.00000000       0.01540587      -0.14817580
Si       5.75938473       1.35750000       8.00000000        8       0.00000000       0.29184200      -0.02076463
Si       5.75938473       0.00000000       9.91979491        8      -0.00000000       0.01540587      -0.14817580
Si       3.83958982       4.07250000       9.91979491        8      -0.00000000      -0.01540587      -0.14817580
Si       0.00000000       2.71500000       8.00000000        8      -0.00000000      -0.29184200      -0.02076463
Si       3.83958982       4.07250000      13.75938473        7      -0.00000000      -0.01199832       0.01266924
Si       7.67917964       2.71500000      11.83958982        7      -0.00000000       0.01591802       0.03033708
Si       5.75938473       1.35750000      11.83958982        7       0.00000000      -0.01591802       0.03033708
Si       5.75938473       0.00000000      13.75938473        7       0.00000000       0.01199832       0.01266924
Si       1.91979491       1.35750000      11.83958982        7       0.00000000      -0.01591802       0.03033708
Si       1.91979491       0.00000000      13.75938473        7      -0.00000000       0.01199832       0.01266924
Si       7.67917964       4.07250000      13.75938473        7      -0.00000000      -0.01199832       0.01266924
Si       3.83958982       2.71500000      11.83958982        7       0.00000000       0.01591802       0.03033708
Si       7.67917964       4.07250000      17.59897455        6      -0.00000000      -0.00070815       0.00018851
Si       3.83958982       2.71500000      15.67917964        6      -0.00000000       0.00125575       0.00509857
Si       1.91979491       1.35750000      15.67917964        6       0.00000000      -0.00125575       0.00509857
Si       1.91979491       0.00000000      17.59897455        6       0.00000000       0.00070815       0.00018851
Si       5.75938473       1.35750000      15.67917964        6       0.00000000      -0.00125575       0.00509857
Si       5.75938473       0.00000000      17.59897455        6      -0.00000000       0.00070815       0.00018851
Si       3.83958982       4.07250000      17.59897455        6       0.00000000      -0.00070815       0.00018851
Si       7.67917964       2.71500000      15.67917964        6       0.00000000       0.00125575       0.00509857
Si       3.83958982       4.07250000      21.43856438        5      -0.00000000      -0.00000843      -0.00002204
Si       7.67917964       2.71500000      19.51876947        5      -0.00000000       0.00001150       0.00014925
Si       5.75938473       1.35750000      19.51876947        5       0.00000000      -0.00001150       0.00014925
Si       5.75938473       0.00000000      21.43856438        5      -0.00000000       0.00000843      -0.00002204
Si       1.91979491       1.35750000      19.51876947        5      -0.00000000      -0.00001150       0.00014925
Si       1.91979491       0.00000000      21.43856438        5       0.00000000       0.00000843      -0.00002204
Si       7.67917964       4.07250000      21.43856438        5       0.00000000      -0.00000843      -0.00002204
Si       3.83958982       2.71500000      19.51876947        5       0.00000000       0.00001150       0.00014925
Si       0.00000000       4.07250000      25.27815420        4       0.00000000      -0.00001150      -0.00014925
Si       3.83958982       2.71500000      23.35835929        4       0.00000000       0.00000843       0.00002204
Si       1.91979491       1.35750000      23.35835929        4      -0.00000000      -0.00000843       0.00002204
Si       1.91979491       0.00000000      25.27815420        4      -0.00000000       0.00001150      -0.00014925
Si       5.75938473       1.35750000      23.35835929        4      -0.00000000      -0.00000843       0.00002204
Si       5.75938473       0.00000000      25.27815420        4      -0.00000000       0.00001150      -0.00014925
Si       3.83958982       4.07250000      25.27815420        4       0.00000000      -0.00001150      -0.00014925
Si       7.67917964       2.71500000      23.35835929        4      -0.00000000       0.00000843       0.00002204
Si       3.83958982       4.07250000      29.11774402        3      -0.00000000      -0.00125575      -0.00509857
Si       0.00000000       2.71500000      27.19794911        3      -0.00000000       0.00070815      -0.00018851
Si       5.75938473       1.35750000      27.19794911        3      -0.00000000      -0.00070815      -0.00018851
Si       5.75938473       0.00000000      29.11774402        3      -0.00000000       0.00125575      -0.00509857
Si       1.91979491       1.35750000      27.19794911        3      -0.00000000      -0.00070815      -0.00018851
Si       1.91979491       0.00000000      29.11774402        3      -0.00000000       0.00125575      -0.00509857
Si       7.67917964       4.07250000      29.11774402        3       0.00000000      -0.00125575      -0.00509857
Si       3.83958982       2.71500000      27.19794911        3       0.00000000       0.00070815      -0.00018851
Si       0.00000000       4.07250000      32.95733384        2      -0.00000000      -0.01591802      -0.03033708
Si       3.83958982       2.71500000      31.03753893        2       0.00000000       0.01199832      -0.01266924
Si       1.91979491       1.35750000      31.03753893        2      -0.00000000      -0.01199832      -0.01266924
Si       1.91979491       0.00000000      32.95733384        2       0.00000000       0.01591802      -0.03033708
Si       5.75938473       1.35750000      31.03753893        2      -0.00000000      -0.01199832      -0.01266924
Si       5.75938473       0.00000000      32.95733384        2      -0.00000000       0.01591802      -0.03033708
Si       3.83958982       4.07250000      32.95733384        2       0.00000000      -0.01591802      -0.03033708
Si       7.67917964       2.71500000      31.03753893        2       0.00000000       0.01199832      -0.01266924
Si       3.83958982       4.07250000      36.79692366        1      -0.00000000       0.29184200       0.02076463
Si       0.00000000       2.71500000      34.87712875        1      -0.00000000       0.01540587       0.14817580
Si       5.75938473       1.35750000      34.87712875        1      -0.00000000      -0.01540587       0.14817580
Si       5.75938473       0.00000000      36.79692366        1      -0.00000000      -0.29184200       0.02076463
Si       1.91979491       1.35750000      34.87712875        1       0.00000000      -0.01540587       0.14817580
Si       1.91979491       0.00000000      36.79692366        1      -0.00000000      -0.29184200       0.02076463
Si       7.67917964       4.07250000      36.79692366        1       0.00000000       0.29184200       0.02076463
Si       3.83958982       2.71500000      34.87712875        1       0.00000000       0.01540587       0.14817580
64
Lattice="7.679179643685906 0.0 0.0 3.8395898218429525 6.650364651656329 0.0 0.0 0.0 38.72883672232258" Properties=species:S:1:pos:R:3:tags:I:1:forces:R:3 config_type=slab miller=111 energy=-339.1247920245262 label_model=mpa-0 structure_key=950293d5e5f3b3e3aba2f862208861c4d4bd6b75ce85a5d53dea12dcd4440b3b pbc="T T F"
Si       3.83958982       6.65036465       8.78375299        8      -0.00000000       0.00000000      -0.11446712
Si       3.83958982       2.21678822       8.00000000        8       0.00000000      -0.00000000      -0.12283146
Si       1.91979491       3.32518233       8.78375299        8      -0.00000000       0.00000000      -0.11446712
Si       5.75938473       5.54197054       8.00000000        8       0.00000000      -0.00000000      -0.12283146
Si       7.67917964       6.65036465       8.78375299        8       0.00000000       0.00000000      -0.11446712
Si       7.67917964       2.21678822       8.00000000        8       0.00000000       0.00000000      -0.12283146
Si       5.75938473       3.32518233       8.78375299        8      -0.00000000      -0.00000000      -0.11446712
Si       9.59897455       5.54197054       8.00000000        8      -0.00000000      -0.00000000      -0.12283146
Si       7.67917964       4.43357643      11.91876495        7       0.00000000      -0.00000000       0.01485070
Si       3.83958982       6.65036465      11.13501196        7       0.00000000      -0.00000000       0.06524359
Si       5.75938473       1.10839411      11.91876495        7      -0.00000000      -0.00000000       0.01485070
Si       1.91979491       3.32518233      11.13501196        7       0.00000000      -0.00000000       0.06524359
Si       3.83958982       4.43357643      11.91876495        7      -0.00000000      -0.00000000       0.01485070
Si       7.67917964       6.65036465      11.13501196        7      -0.00000000       0.00000000       0.06524359
Si       1.91979491       1.10839411      11.91876495        7      -0.00000000      -0.00000000       0.01485070
Si       5.75938473       3.32518233      11.13501196        7       0.00000000       0.00000000       0.06524359
Si       3.83958982       2.21678822      15.05377691        6      -0.00000000       0.00000000       0.01073095
Si       7.67917964       4.43357643      14.27002392        6       0.00000000       0.00000000      -0.00402519
Si       5.75938473       5.54197054      15.05377691        6      -0.00000000      -0.00000000       0.01073095
Si       5.75938473       1.10839411      14.27002392        6       0.00000000      -0.00000000      -0.00402519
Si       7.67917964       2.21678822      15.05377691        6      -0.00000000      -0.00000000       0.01073095
Si       3.83958982       4.43357643      14.27002392        6       0.00000000       0.00000000      -0.00402519
Si       9.59897455       5.54197054      15.05377691        6      -0.00000000       0.00000000       0.01073095
Si       1.91979491       1.10839411      14.27002392        6       0.00000000       0.00000000      -0.00402519
Si       3.83958982       6.65036465      18.18878888        5       0.00000000      -0.00000000       0.00084091
Si       3.83958982       2.21678822      17.40503589        5       0.00000000      -0.00000000       0.00194146
Si       1.91979491       3.32518233      18.18878888        5      -0.00000000       0.00000000       0.00084091
Si       5.75938473       5.54197054      17.40503589        5      -0.00000000      -0.00000000       0.00194146
Si       7.67917964       6.65036465      18.18878888        5      -0.00000000       0.00000000       0.00084091
Si       7.67917964       2.21678822      17.40503589        5      -0.00000000       0.00000000       0.00194146
Si       5.75938473       3.32518233      18.18878888        5       0.00000000       0.00000000       0.00084091
Si       9.59897455       5.54197054      17.40503589        5      -0.00000000      -0.00000000       0.00194146
Si       7.67917964       4.43357643      21.32380084        4      -0.00000000      -0.00000000      -0.00194146
Si       3.83958982       6.65036465      20.54004785        4       0.00000000      -0.00000000      -0.00084091
Si       5.75938473       1.10839411      21.32380084        4      -0.00000000       0.00000000      -0.00194146
Si       1.91979491       3.32518233      20.54004785        4       0.00000000       0.00000000      -0.00084091
Si       3.83958982       4.43357643      21.32380084        4       0.00000000      -0.00000000      -0.00194146
Si       7.67917964       6.65036465      20.54004785        4       0.00000000       0.00000000      -0.00084091
Si       1.91979491       1.10839411      21.32380084        4      -0.00000000      -0.00000000      -0.00194146
Si       5.75938473       3.32518233      20.54004785        4      -0.00000000       0.00000000      -0.00084091
Si       3.83958982       2.21678822      24.45881280        3      -0.00000000      -0.00000000       0.00402519
Si       7.67917964       4.43357643      23.67505981        3       0.00000000      -0.00000000      -0.01073095
Si       5.75938473       5.54197054      24.45881280        3      -0.00000000       0.00000000       0.00402519
Si       5.75938473       1.10839411      23.67505981        3       0.00000000      -0.00000000      -0.01073095
Si       7.67917964       2.21678822      24.45881280        3       0.00000000      -0.00000000       0.00402519
Si       3.83958982       4.43357643      23.67505981        3       0.00000000       0.00000000      -0.01073095
Si       9.59897455       5.54197054      24.45881280        3      -0.00000000      -0.00000000       0.00402519
Si       1.91979491       1.10839411      23.67505981        3       0.00000000       0.00000000      -0.01073095
Si       3.83958982       6.65036465      27.59382476        2       0.00000000       0.00000000      -0.06524359
Si       3.83958982       2.21678822      26.81007177        2       0.00000000       0.00000000      -0.01485070
Si       1.91979491       3.32518233      27.59382476        2      -0.00000000       0.00000000      -0.06524359
Si       5.75938473       5.54197054      26.81007177        2      -0.00000000      -0.00000000      -0.01485070
Si       7.67917964       6.65036465      27.59382476        2      -0.00000000       0.00000000      -0.06524359
Si       7.67917964       2.21678822      26.81007177        2       0.00000000      -0.00000000      -0.01485070
Si       5.75938473       3.32518233      27.59382476        2      -0.00000000      -0.00000000      -0.06524359
Si       9.59897455       5.54197054      26.81007177        2      -0.00000000      -0.00000000      -0.01485070
Si       7.67917964       4.43357643      30.72883672        1       0.00000000       0.00000000       0.12283146
Si       3.83958982       6.65036465      29.94508373        1       0.00000000       0.00000000       0.11446712
Si       5.75938473       1.10839411      30.72883672        1      -0.00000000       0.00000000       0.12283146
Si       1.91979491       3.32518233      29.94508373        1       0.00000000       0.00000000       0.11446712
Si       3.83958982       4.43357643      30.72883672        1       0.00000000      -0.00000000       0.12283146
Si       7.67917964       6.65036465      29.94508373        1       0.00000000       0.00000000       0.11446712
Si       1.91979491       1.10839411      30.72883672        1       0.00000000      -0.00000000       0.12283146
Si       5.75938473       3.32518233      29.94508373        1      -0.00000000       0.00000000       0.11446712
64
Lattice="5.43 0.0 0.0 0.0 5.43 0.0 0.0 0.0 62.082499999999996" Properties=species:S:1:pos:R:3:tags:I:1:forces:R:3 config_type=slab miller=100 energy=-339.2006080459087 label_model=mpa-0 structure_key=9580d07a7f6beff95ec83e566cd5f1332b318061a3b7e4398f91ffb2100f6887 pbc="T T F"
Si       1.35750000       1.35750000      11.35750000        8      -0.00000000      -0.00000000       0.13851801
Si       2.71500000       2.71500000      12.71500000        8       0.00000000       0.00000000      -0.05691596
Si       4.07250000       4.07250000      11.35750000        8       0.00000000       0.00000000       0.13851801
Si       0.00000000       0.00000000      12.71500000        8      -0.00000000      -0.00000000      -0.05691596
Si       1.35750000       4.07250000      14.07250000        8      -0.00000000       0.00000000       0.00466394
Si       2.71500000       0.00000000      10.00000000        8       0.00000000      -0.00000000      -0.30844850
Si       4.07250000       1.35750000      14.07250000        8      -0.00000000      -0.00000000       0.00466394
Si       0.00000000       2.71500000      10.00000000        8      -0.00000000       0.00000000      -0.30844850
Si       1.35750000       1.35750000      16.78750000        7      -0.00000000      -0.00000000      -0.00417746
Si       2.71500000       2.71500000      18.14500000        7       0.00000000       0.00000000       0.00062312
Si       4.07250000       4.07250000      16.78750000        7      -0.00000000      -0.00000000      -0.00417746
Si       0.00000000       0.00000000      18.14500000        7      -0.00000000      -0.00000000       0.00062312
Si       1.35750000       4.07250000      19.50250000        7      -0.00000000      -0.00000000      -0.00027168
Si       2.71500000       0.00000000      15.43000000        7       0.00000000      -0.00000000       0.05578913
Si       4.07250000       1.35750000      19.50250000        7      -0.00000000      -0.00000000      -0.00027168
Si       0.00000000       2.71500000      15.43000000        7      -0.00000000       0.00000000       0.05578913
Si       1.35750000       1.35750000      22.21750000        6      -0.00000000      -0.00000000      -0.00018536
Si       2.71500000       2.71500000      23.57500000        6       0.00000000       0.00000000       0.00001324
Si       4.07250000       4.07250000      22.21750000        6       0.00000000       0.00000000      -0.00018536
Si       0.00000000       0.00000000      23.57500000        6      -0.00000000      -0.00000000       0.00001324
Si       1.35750000       4.07250000      24.93250000        6      -0.00000000      -0.00000000       0.00006052
Si       2.71500000       0.00000000      20.86000000        6       0.00000000      -0.00000000      -0.00011309
Si       4.07250000       1.35750000      24.93250000        6      -0.00000000      -0.00000000       0.00006052
Si       0.00000000       2.71500000      20.86000000        6      -0.00000000       0.00000000      -0.00011309
Si       1.35750000       1.35750000      27.64750000        5      -0.00000000      -0.00000000      -0.00000127
Si       2.71500000       2.71500000      29.00500000        5       0.00000000       0.00000000      -0.00000032
Si       4.07250000       4.07250000      27.64750000        5       0.00000000      -0.00000000      -0.00000127
Si       0.00000000       0.00000000      29.00500000        5      -0.00000000      -0.00000000      -0.00000032
Si       1.35750000       4.07250000      30.36250000        5      -0.00000000      -0.00000000      -0.00000001
Si       2.71500000       0.00000000      26.29000000        5       0.00000000       0.00000000      -0.00000247
Si       4.07250000       1.35750000      30.36250000        5      -0.00000000      -0.00000000      -0.00000001
Si       0.00000000       2.71500000      26.29000000        5       0.00000000       0.00000000      -0.00000247
Si       1.35750000       1.35750000      33.07750000        4      -0.00000000      -0.00000000       0.00000032
Si       2.71500000       2.71500000      34.43500000        4       0.00000000       0.00000000       0.00000127
Si       4.07250000       4.07250000      33.07750000        4      -0.00000000      -0.00000000       0.00000032
Si       0.00000000       0.00000000      34.43500000        4      -0.00000000      -0.00000000       0.00000127
Si       1.35750000       4.07250000      35.79250000        4      -0.00000000       0.00000000       0.00000247
Si       2.71500000       0.00000000      31.72000000        4       0.00000000      -0.00000000       0.00000001
Si       4.07250000       1.35750000      35.79250000        4      -0.00000000      -0.00000000       0.00000247
Si       0.00000000       2.71500000      31.72000000        4      -0.00000000       0.00000000       0.00000001
Si       1.35750000       1.35750000      38.50750000        3       0.00000000      -0.00000000      -0.00001324
Si       2.71500000       2.71500000      39.86500000        3       0.00000000       0.00000000       0.00018536
Si       4.07250000       4.07250000      38.50750000        3      -0.00000000      -0.00000000      -0.00001324
Si       0.00000000       0.00000000      39.86500000        3      -0.00000000      -0.00000000       0.00018536
Si       1.35750000       4.07250000      41.22250000        3      -0.00000000      -0.00000000       0.00011309
Si       2.71500000       0.00000000      37.15000000        3       0.00000000      -0.00000000      -0.00006052
Si       4.07250000       1.35750000      41.22250000        3      -0.00000000      -0.00000000       0.00011309
Si       0.00000000       2.71500000      37.15000000        3      -0.00000000       0.00000000      -0.00006052
Si       1.35750000       1.35750000      43.93750000        2      -0.00000000      -0.00000000      -0.00062312
Si       2.71500000       2.71500000      45.29500000        2       0.00000000       0.00000000       0.00417746
Si       4.07250000       4.07250000      43.93750000        2      -0.00000000      -0.00000000      -0.00062312
Si       0.00000000       0.00000000      45.29500000        2       0.00000000      -0.00000000       0.00417746
Si       1.35750000       4.07250000      46.65250000        2      -0.00000000      -0.00000000      -0.05578913
Si       2.71500000       0.00000000      42.58000000        2       0.00000000      -0.00000000       0.00027168
Si       4.07250000       1.35750000      46.65250000        2      -0.00000000      -0.00000000      -0.05578913
Si       0.00000000       2.71500000      42.58000000        2      -0.00000000       0.00000000       0.00027168
Si       1.35750000       1.35750000      49.36750000        1      -0.00000000       0.00000000       0.05691596
Si       2.71500000       2.71500000      50.72500000        1       0.00000000      -0.00000000      -0.13851801
Si       4.07250000       4.07250000      49.36750000        1      -0.00000000      -0.00000000       0.05691596
Si       0.00000000       0.00000000      50.72500000        1      -0.00000000       0.00000000      -0.13851801
Si       1.35750000       4.07250000      52.08250000        1       0.00000000      -0.00000000       0.30844850
Si       2.71500000       0.00000000      48.01000000        1       0.00000000      -0.00000000      -0.00466394
Si       4.07250000       1.35750000      52.08250000        1      -0.00000000       0.00000000       0.30844850
Si       0.00000000       2.71500000      48.01000000        1      -0.00000000       0.00000000      -0.00466394
64
Lattice="7.679179643685906 0.0 0.0 0.0 5.43 0.0 0.0 0.0 48.79692366382215" Properties=species:S:1:pos:R:3:tags:I:1:forces:R:3 config_type=slab miller=110 energy=-339.40637963230245 label_model=mpa-0 structure_key=50141a12f59b41c56a51858770bc46ca397e4e3a188ce7e2565931b1726bf08c pbc="T T F"
Si       7.67917964       4.07250000      11.91979491        8       0.00000000      -0.01540587      -0.14817580
Si       3.83958982       2.71500000      10.00000000        8      -0.00000000      -0.29184200      -0.02076463
Si       1.91979491       1.35750000      10.00000000        8      -0.00000000       0.29184200      -0.02076463
Si       1.91979491       0.00000000      11.91979491        8       0.00000000       0.01540587      -0.14817580
Si       5.75938473       1.35750000      10.00000000        8       0.00000000       0.29184200      -0.02076463
Si       5.75938473       0.00000000      11.91979491        8      -0.00000000       0.01540587      -0.14817580
Si       3.83958982       4.07250000      11.91979491        8      -0.00000000      -0.01540587      -0.14817580
Si       0.00000000       2.71500000      10.00000000        8      -0.00000000      -0.29184200      -0.02076463
Si       3.83958982       4.07250000      15.75938473        7      -0.00000000      -0.01199832       0.01266924
Si       7.67917964       2.71500000      13.83958982        7      -0.00000000       0.01591802       0.03033708
Si       5.75938473       1.35750000      13.83958982        7       0.00000000      -0.01591802       0.03033708
Si       5.75938473       0.00000000      15.75938473        7       0.00000000       0.01199832       0.01266924
Si       1.91979491       1.35750000      13.83958982        7       0.00000000      -0.01591802       0.03033708
Si       1.91979491       0.00000000      15.75938473        7      -0.00000000       0.01199832       0.01266924
Si       7.67917964       4.07250000      15.75938473        7      -0.00000000      -0.01199832       0.01266924
Si       3.83958982       2.71500000      13.83958982        7       0.00000000       0.01591802       0.03033708
Si       7.67917964       4.07250000      19.59897455        6      -0.00000000      -0.00070815       0.00018851
Si       3.83958982       2.71500000      17.67917964        6      -0.00000000       0.00125575       0.00509857
Si       1.91979491       1.35750000      17.67917964        6       0.00000000      -0.00125575       0.00509857
Si       1.91979491       0.00000000      19.59897455        6       0.00000000       0.00070815       0.00018851
Si       5.75938473       1.35750000      17.67917964        6       0.00000000      -0.00125575       0.00509857
Si       5.75938473       0.00000000      19.59897455        6      -0.00000000       0.00070815       0.00018851
Si       3.83958982       4.07250000      19.59897455        6       0.00000000      -0.00070815       0.00018851
Si       7.67917964       2.71500000      17.67917964        6       0.00000000       0.00125575       0.00509857
Si       3.83958982       4.07250000      23.43856438        5      -0.00000000      -0.00000843      -0.00002204
Si       7.67917964       2.71500000      21.51876947        5      -0.00000000       0.00001150       0.00014925
Si       5.75938473       1.35750000      21.51876947        5       0.00000000      -0.00001150       0.00014925
Si       5.75938473       0.00000000      23.43856438        5      -0.00000000       0.00000843      -0.00002204
Si       1.91979491       1.35750000      21.51876947        5      -0.00000000      -0.00001150       0.00014925
Si       1.91979491       0.00000000      23.43856438        5       0.00000000       0.00000843      -0.00002204
Si       7.67917964       4.07250000      23.43856438        5       0.00000000      -0.00000843      -0.00002204
Si       3.83958982       2.71500000      21.51876947        5       0.00000000       0.00001150       0.00014925
Si       0.00000000       4.07250000      27.27815420        4       0.00000000      -0.00001150      -0.00014925
Si       3.83958982       2.71500000      25.35835929        4       0.00000000       0.00000843       0.00002204
Si       1.91979491       1.35750000      25.35835929        4      -0.00000000      -0.00000843       0.00002204
Si       1.91979491       0.00000000      27.27815420        4      -0.00000000       0.00001150      -0.00014925
Si       5.75938473       1.35750000      25.35835929        4      -0.00000000      -0.00000843       0.00002204
Si       5.75938473       0.00000000      27.27815420        4      -0.00000000       0.00001150      -0.00014925
Si       3.83958982       4.07250000      27.27815420        4       0.00000000      -0.00001150      -0.00014925
Si       7.67917964       2.71500000      25.35835929        4      -0.00000000       0.00000843       0.00002204
Si       3.83958982       4.07250000      31.11774402        3      -0.00000000      -0.00125575      -0.00509857
Si       0.00000000       2.71500000      29.19794911        3      -0.00000000       0.00070815      -0.00018851
Si       5.75938473       1.35750000      29.19794911        3      -0.00000000      -0.00070815      -0.00018851
Si       5.75938473       0.00000000      31.11774402        3       0.00000000       0.00125575      -0.00509857
Si       1.91979491       1.35750000      29.19794911        3      -0.00000000      -0.00070815      -0.00018851
Si       1.91979491       0.00000000      31.11774402        3      -0.00000000       0.00125575      -0.00509857
Si       7.67917964       4.07250000      31.11774402        3       0.00000000      -0.00125575      -0.00509857
Si       3.83958982       2.71500000      29.19794911        3       0.00000000       0.00070815      -0.00018851
Si       0.00000000       4.07250000      34.95733384        2      -0.00000000      -0.01591802      -0.03033708
Si       3.83958982       2.71500000      33.03753893        2      -0.00000000       0.01199832      -0.01266924
Si       1.91979491       1.35750000      33.03753893        2      -0.00000000      -0.01199832      -0.01266924
Si       1.91979491       0.00000000      34.95733384        2       0.00000000       0.01591802      -0.03033708
Si       5.75938473       1.35750000      33.03753893        2      -0.00000000      -0.01199832      -0.01266924
Si       5.75938473       0.00000000      34.95733384        2      -0.00000000       0.01591802      -0.03033708
Si       3.83958982       4.07250000      34.95733384        2       0.00000000      -0.01591802      -0.03033708
Si       7.67917964       2.71500000      33.03753893        2       0.00000000       0.01199832      -0.01266924
Si       3.83958982       4.07250000      38.79692366        1      -0.00000000       0.29184200       0.02076463
Si       0.00000000       2.71500000      36.87712875        1      -0.00000000       0.01540587       0.14817580
Si       5.75938473       1.35750000      36.87712875        1      -0.00000000      -0.01540587       0.14817580
Si       5.75938473       0.00000000      38.79692366        1      -0.00000000      -0.29184200       0.02076463
Si       1.91979491       1.35750000      36.87712875        1       0.00000000      -0.01540587       0.14817580
Si       1.91979491       0.00000000      38.79692366        1      -0.00000000      -0.29184200       0.02076463
Si       7.67917964       4.07250000      38.79692366        1       0.00000000       0.29184200       0.02076463
Si       3.83958982       2.71500000      36.87712875        1       0.00000000       0.01540587       0.14817580
64
Lattice="7.679179643685906 0.0 0.0 3.8395898218429525 6.650364651656329 0.0 0.0 0.0 42.72883672232258" Properties=species:S:1:pos:R:3:tags:I:1:forces:R:3 config_type=slab miller=111 energy=-339.1247920245263 label_model=mpa-0 structure_key=661bddf7ad7c10940df11267784282b0961d879d21e643a3ca077a9341101e4c pbc="T T F"
Si       3.83958982       6.65036465      10.78375299        8      -0.00000000       0.00000000      -0.11446712
Si       3.83958982       2.21678822      10.00000000        8       0.00000000      -0.00000000      -0.12283146
Si       1.91979491       3.32518233      10.78375299        8      -0.00000000       0.00000000      -0.11446712
Si       5.75938473       5.54197054      10.00000000        8       0.00000000      -0.00000000      -0.12283146
Si       7.67917964       6.65036465      10.78375299        8       0.00000000      -0.00000000      -0.11446712
Si       7.67917964       2.21678822      10.00000000        8       0.00000000       0.00000000      -0.12283146
Si       5.75938473       3.32518233      10.78375299        8      -0.00000000      -0.00000000      -0.11446712
Si       9.59897455       5.54197054      10.00000000        8      -0.00000000       0.00000000      -0.12283146
Si       7.67917964       4.43357643      13.91876495        7      -0.00000000       0.00000000       0.01485070
Si       3.83958982       6.65036465      13.13501196        7       0.00000000      -0.00000000       0.06524359
Si       5.75938473       1.10839411      13.91876495        7      -0.00000000       0.00000000       0.01485070
Si       1.91979491       3.32518233      13.13501196        7      -0.00000000      -0.00000000       0.06524359
Si       3.83958982       4.43357643      13.91876495        7      -0.00000000       0.00000000       0.01485070
Si       7.67917964       6.65036465      13.13501196        7      -0.00000000       0.00000000       0.06524359
Si       1.91979491       1.10839411      13.91876495        7      -0.00000000      -0.00000000       0.01485070
Si       5.75938473       3.32518233      13.13501196        7       0.00000000       0.00000000       0.06524359
Si       3.83958982       2.21678822      17.05377691        6      -0.00000000       0.00000000       0.01073095
Si       7.67917964       4.43357643      16.27002392        6       0.00000000      -0.00000000      -0.00402519
Si       5.75938473       5.54197054      17.05377691        6      -0.00000000      -0.00000000       0.01073095
Si       5.75938473       1.10839411      16.27002392        6       0.00000000      -0.00000000      -0.00402519
Si       7.67917964       2.21678822      17.05377691        6      -0.00000000      -0.00000000       0.01073095
Si       3.83958982       4.43357643      16.27002392        6       0.00000000      -0.00000000      -0.00402519
Si       9.59897455       5.54197054      17.05377691        6      -0.00000000       0.00000000       0.01073095
Si       1.91979491       1.10839411      16.27002392        6       0.00000000       0.00000000      -0.00402519
Si       3.83958982       6.65036465      20.18878888        5       0.00000000      -0.00000000       0.00084091
Si       3.83958982       2.21678822      19.40503589        5       0.00000000      -0.00000000       0.00194146
Si       1.91979491       3.32518233      20.18878888        5      -0.00000000       0.00000000       0.00084091
Si       5.75938473       5.54197054      19.40503589        5      -0.00000000      -0.00000000       0.00194146
Si       7.67917964       6.65036465      20.18878888        5       0.00000000       0.00000000       0.00084091
Si       7.67917964       2.21678822      19.40503589        5      -0.00000000      -0.00000000       0.00194146
Si       5.75938473       3.32518233      20.18878888        5       0.00000000       0.00000000       0.00084091
Si       9.59897455       5.54197054      19.40503589        5       0.00000000       0.00000000       0.00194146
Si       7.67917964       4.43357643      23.32380084        4      -0.00000000      -0.00000000      -0.00194146
Si       3.83958982       6.65036465      22.54004785        4       0.00000000       0.00000000      -0.00084091
Si       5.75938473       1.10839411      23.32380084        4      -0.00000000       0.00000000      -0.00194146
Si       1.91979491       3.32518233      22.54004785        4       0.00000000      -0.00000000      -0.00084091
Si       3.83958982       4.43357643      23.32380084        4       0.00000000      -0.00000000      -0.00194146
Si       7.67917964       6.65036465      22.54004785        4       0.00000000       0.00000000      -0.00084091
Si       1.91979491       1.10839411      23.32380084        4      -0.00000000      -0.00000000      -0.00194146
Si       5.75938473       3.32518233      22.54004785        4      -0.00000000      -0.00000000      -0.00084091
Si       3.83958982       2.21678822      26.45881280        3      -0.00000000       0.00000000       0.00402519
Si       7.67917964       4.43357643      25.67505981        3       0.00000000      -0.00000000      -0.01073095
Si       5.75938473       5.54197054      26.45881280        3      -0.00000000       0.00000000       0.00402519
Si       5.75938473       1.10839411      25.67505981        3       0.00000000      -0.00000000      -0.01073095
Si       7.67917964       2.21678822      26.45881280        3       0.00000000       0.00000000       0.00402519
Si       3.83958982       4.43357643      25.67505981        3       0.00000000       0.00000000      -0.01073095
Si       9.59897455       5.54197054      26.45881280        3      -0.00000000      -0.00000000       0.00402519
Si       1.91979491       1.10839411      25.67505981        3       0.00000000       0.00000000      -0.01073095
Si       3.83958982       6.65036465      29.59382476        2       0.00000000      -0.00000000      -0.06524359
Si       3.83958982       2.21678822      28.81007177        2       0.00000000      -0.00000000      -0.01485070
Si       1.91979491       3.32518233      29.59382476        2      -0.00000000       0.00000000      -0.06524359
Si       5.75938473       5.54197054      28.81007177        2      -0.00000000      -0.00000000      -0.01485070
Si       7.67917964       6.65036465      29.59382476        2      -0.00000000      -0.00000000      -0.06524359
Si       7.67917964       2.21678822      28.81007177        2       0.00000000       0.00000000      -0.01485070
Si       5.75938473       3.32518233      29.59382476        2      -0.00000000       0.00000000      -0.06524359
Si       9.59897455       5.54197054      28.81007177        2      -0.00000000      -0.00000000      -0.01485070
Si       7.67917964       4.43357643      32.72883672        1       0.00000000       0.00000000       0.12283146
Si       3.83958982       6.65036465      31.94508373        1       0.00000000      -0.00000000       0.11446712
Si       5.75938473       1.10839411      32.72883672        1      -0.00000000       0.00000000       0.12283146
Si       1.91979491       3.32518233      31.94508373        1      -0.00000000      -0.00000000       0.11446712
Si       3.83958982       4.43357643      32.72883672        1       0.00000000      -0.00000000       0.12283146
Si       7.67917964       6.65036465      31.94508373        1       0.00000000       0.00000000       0.11446712
Si       1.91979491       1.10839411      32.72883672        1       0.00000000       0.00000000       0.12283146
Si       5.75938473       3.32518233      31.94508373        1      -0.00000000       0.00000000       0.11446712
64
Lattice="5.43 0.0 0.0 0.0 5.43 0.0 0.0 0.0 66.0825" Properties=species:S:1:pos:R:3:tags:I:1:forces:R:3 config_type=slab miller=100 energy=-339.2006080459087 label_model=mpa-0 structure_key=e34736d26e9dd82ba09f5b5196b2462a56288561b687c986e2ea0d4d8a032dda pbc="T T F"
Si       1.35750000       1.35750000      13.35750000        8      -0.00000000      -0.00000000       0.13851801
Si       2.71500000       2.71500000      14.71500000        8       0.00000000       0.00000000      -0.05691596
Si       4.07250000       4.07250000      13.35750000        8      -0.00000000       0.00000000       0.13851801
Si       0.00000000       0.00000000      14.71500000        8       0.00000000       0.00000000      -0.05691596
Si       1.35750000       4.07250000      16.07250000        8      -0.00000000      -0.00000000       0.00466394
Si       2.71500000       0.00000000      12.00000000        8       0.00000000      -0.00000000      -0.30844850
Si       4.07250000       1.35750000      16.07250000        8      -0.00000000      -0.00000000       0.00466394
Si       0.00000000       2.71500000      12.00000000        8      -0.00000000       0.00000000      -0.30844850
Si       1.35750000       1.35750000      18.78750000        7      -0.00000000      -0.00000000      -0.00417746
Si       2.71500000       2.71500000      20.14500000        7       0.00000000       0.00000000       0.00062312
Si       4.07250000       4.07250000      18.78750000        7       0.00000000      -0.00000000      -0.00417746
Si       0.00000000       0.00000000      20.14500000        7       0.00000000       0.00000000       0.00062312
Si       1.35750000       4.07250000      21.50250000        7      -0.00000000      -0.00000000      -0.00027168
Si       2.71500000       0.00000000      17.43000000        7       0.00000000       0.00000000       0.05578913
Si       4.07250000       1.35750000      21.50250000        7      -0.00000000      -0.00000000      -0.00027168
Si       0.00000000       2.71500000      17.43000000        7       0.00000000       0.00000000       0.05578913
Si       1.35750000       1.35750000      24.21750000        6      -0.00000000      -0.00000000      -0.00018536
Si       2.71500000       2.71500000      25.57500000        6       0.00000000       0.00000000       0.00001324
Si       4.07250000       4.07250000      24.21750000        6      -0.00000000      -0.00000000      -0.00018536
Si       0.00000000       0.00000000      25.57500000        6       0.00000000      -0.00000000       0.00001324
Si       1.35750000       4.07250000      26.93250000        6      -0.00000000      -0.00000000       0.00006052
Si       2.71500000       0.00000000      22.86000000        6       0.00000000       0.00000000      -0.00011309
Si       4.07250000       1.35750000      26.93250000        6      -0.00000000      -0.00000000       0.00006052
Si       0.00000000       2.71500000      22.86000000        6      -0.00000000       0.00000000      -0.00011309
Si       1.35750000       1.35750000      29.64750000        5      -0.00000000      -0.00000000      -0.00000127
Si       2.71500000       2.71500000      31.00500000        5       0.00000000       0.00000000      -0.00000032
Si       4.07250000       4.07250000      29.64750000        5      -0.00000000       0.00000000      -0.00000127
Si       0.00000000       0.00000000      31.00500000        5      -0.00000000      -0.00000000      -0.00000032
Si       1.35750000       4.07250000      32.36250000        5      -0.00000000      -0.00000000      -0.00000001
Si       2.71500000       0.00000000      28.29000000        5       0.00000000       0.00000000      -0.00000247
Si       4.07250000       1.35750000      32.36250000        5      -0.00000000      -0.00000000      -0.00000001
Si       0.00000000       2.71500000      28.29000000        5      -0.00000000       0.00000000      -0.00000247
Si       1.35750000       1.35750000      35.07750000        4      -0.00000000      -0.00000000       0.00000032
Si       2.71500000       2.71500000      36.43500000        4       0.00000000       0.00000000       0.00000127
Si       4.07250000       4.07250000      35.07750000        4      -0.00000000      -0.00000000       0.00000032
Si       0.00000000       0.00000000      36.43500000        4      -0.00000000      -0.00000000       0.00000127
Si       1.35750000       4.07250000      37.79250000        4      -0.00000000       0.00000000       0.00000247
Si       2.71500000       0.00000000      33.72000000        4       0.00000000      -0.00000000       0.00000001
Si       4.07250000       1.35750000      37.79250000        4       0.00000000      -0.00000000       0.00000247
Si       0.00000000       2.71500000      33.72000000        4       0.00000000       0.00000000       0.00000001
Si       1.35750000       1.35750000      40.50750000        3       0.00000000      -0.00000000      -0.00001324
Si       2.71500000       2.71500000      41.86500000        3       0.00000000       0.00000000       0.00018536
Si       4.07250000       4.07250000      40.50750000        3      -0.00000000      -0.00000000      -0.00001324
Si       0.00000000       0.00000000      41.86500000        3      -0.00000000      -0.00000000       0.00018536
Si       1.35750000       4.07250000      43.22250000        3      -0.00000000      -0.00000000       0.00011309
Si       2.71500000       0.00000000      39.15000000        3       0.00000000      -0.00000000      -0.00006052
Si       4.07250000       1.35750000      43.22250000        3      -0.00000000      -0.00000000       0.00011309
Si       0.00000000       2.71500000      39.15000000        3      -0.00000000       0.00000000      -0.00006052
Si       1.35750000       1.35750000      45.93750000        2      -0.00000000       0.00000000      -0.00062312
Si       2.71500000       2.71500000      47.29500000        2       0.00000000       0.00000000       0.00417746
Si       4.07250000       4.07250000      45.93750000        2      -0.00000000      -0.00000000      -0.00062312
Si       0.00000000       0.00000000      47.29500000        2       0.00000000      -0.00000000       0.00417746
Si       1.35750000       4.07250000      48.65250000        2      -0.00000000      -0.00000000      -0.05578913
Si       2.71500000       0.00000000      44.58000000        2       0.00000000      -0.00000000       0.00027168
Si       4.07250000       1.35750000      48.65250000        2      -0.00000000      -0.00000000      -0.05578913
Si       0.00000000       2.71500000      44.58000000        2      -0.00000000       0.00000000       0.00027168
Si       1.35750000       1.35750000      51.36750000        1       0.00000000       0.00000000       0.05691596
Si       2.71500000       2.71500000      52.72500000        1       0.00000000       0.00000000      -0.13851801
Si       4.07250000       4.07250000      51.36750000        1      -0.00000000       0.00000000       0.05691596
Si       0.00000000       0.00000000      52.72500000        1      -0.00000000       0.00000000      -0.13851801
Si       1.35750000       4.07250000      54.08250000        1      -0.00000000      -0.00000000       0.30844850
Si       2.71500000       0.00000000      50.01000000        1       0.00000000      -0.00000000      -0.00466394
Si       4.07250000       1.35750000      54.08250000        1      -0.00000000       0.00000000       0.30844850
Si       0.00000000       2.71500000      50.01000000        1       0.00000000       0.00000000      -0.00466394
64
Lattice="7.679179643685906 0.0 0.0 0.0 5.43 0.0 0.0 0.0 52.79692366382215" Properties=species:S:1:pos:R:3:tags:I:1:forces:R:3 config_type=slab miller=110 energy=-339.40637963230256 label_model=mpa-0 structure_key=b040e34ba943e5e5a6cf81b95e8ddb765594e9de183f0fb89948d02877ca6d6f pbc="T T F"
Si       7.67917964       4.07250000      13.91979491        8       0.00000000      -0.01540587      -0.14817580
Si       3.83958982       2.71500000      12.00000000        8      -0.00000000      -0.29184200      -0.02076463
Si       1.91979491       1.35750000      12.00000000        8       0.00000000       0.29184200      -0.02076463
Si       1.91979491       0.00000000      13.91979491        8      -0.00000000       0.01540587      -0.14817580
Si       5.75938473       1.35750000      12.00000000        8       0.00000000       0.29184200      -0.02076463
Si       5.75938473       0.00000000      13.91979491        8      -0.00000000       0.01540587      -0.14817580
Si       3.83958982       4.07250000      13.91979491        8      -0.00000000      -0.01540587      -0.14817580
Si       0.00000000       2.71500000      12.00000000        8      -0.00000000      -0.29184200      -0.02076463
Si       3.83958982       4.07250000      17.75938473        7       0.00000000      -0.01199832       0.01266924
Si       7.67917964       2.71500000      15.83958982        7      -0.00000000       0.01591802       0.03033708
Si       5.75938473       1.35750000      15.83958982        7       0.00000000      -0.01591802       0.03033708
Si       5.75938473       0.00000000      17.75938473        7      -0.00000000       0.01199832       0.01266924
Si       1.91979491       1.35750000      15.83958982        7       0.00000000      -0.01591802       0.03033708
Si       1.91979491       0.00000000      17.75938473        7      -0.00000000       0.01199832       0.01266924
Si       7.67917964       4.07250000      17.75938473        7      -0.00000000      -0.01199832       0.01266924
Si       3.83958982       2.71500000      15.83958982        7      -0.00000000       0.01591802       0.03033708
Si       7.67917964       4.07250000      21.59897455        6      -0.00000000      -0.00070815       0.00018851
Si       3.83958982       2.71500000      19.67917964        6      -0.00000000       0.00125575       0.00509857
Si       1.91979491       1.35750000      19.67917964        6       0.00000000      -0.00125575       0.00509857
Si       1.91979491       0.00000000      21.59897455        6       0.00000000       0.00070815       0.00018851
Si       5.75938473       1.35750000      19.67917964        6       0.00000000      -0.00125575       0.00509857
Si       5.75938473       0.00000000      21.59897455        6      -0.00000000       0.00070815       0.00018851
Si       3.83958982       4.07250000      21.59897455        6       0.00000000      -0.00070815       0.00018851
Si       7.67917964       2.71500000      19.67917964        6       0.00000000       0.00125575       0.00509857
Si       3.83958982       4.07250000      25.43856438        5      -0.00000000      -0.00000843      -0.00002204
Si       7.67917964       2.71500000      23.51876947        5      -0.00000000       0.00001150       0.00014925
Si       5.75938473       1.35750000      23.51876947        5       0.00000000      -0.00001150       0.00014925
Si       5.75938473       0.00000000      25.43856438        5      -0.00000000       0.00000843      -0.00002204
Si       1.91979491       1.35750000      23.51876947        5      -0.00000000      -0.00001150       0.00014925
Si       1.91979491       0.00000000      25.43856438        5       0.00000000       0.00000843      -0.00002204
Si       7.67917964       4.07250000      25.43856438        5       0.00000000      -0.00000843      -0.00002204
Si       3.83958982       2.71500000      23.51876947        5       0.00000000       0.00001150       0.00014925
Si       0.00000000       4.07250000      29.27815420        4       0.00000000      -0.00001150      -0.00014925
Si       3.83958982       2.71500000      27.35835929        4       0.00000000       0.00000843       0.00002204
Si       1.91979491       1.35750000      27.35835929        4      -0.00000000      -0.00000843       0.00002204
Si       1.91979491       0.00000000      29.27815420        4      -0.00000000       0.00001150      -0.00014925
Si       5.75938473       1.35750000      27.35835929        4      -0.00000000      -0.00000843       0.00002204
Si       5.75938473       0.00000000      29.27815420        4      -0.00000000       0.00001150      -0.00014925
Si       3.83958982       4.07250000      29.27815420        4       0.00000000      -0.00001150      -0.00014925
Si       7.67917964       2.71500000      27.35835929        4      -0.00000000       0.00000843       0.00002204
Si       3.83958982       4.07250000      33.11774402        3      -0.00000000      -0.00125575      -0.00509857
Si       0.00000000       2.71500000      31.19794911        3      -0.00000000       0.00070815      -0.00018851
Si       5.75938473       1.35750000      31.19794911        3      -0.00000000      -0.00070815      -0.00018851
Si       5.75938473       0.00000000      33.11774402        3       0.00000000       0.00125575      -0.00509857
Si       1.91979491       1.35750000      31.19794911        3      -0.00000000      -0.00070815      -0.00018851
Si       1.91979491       0.00000000      33.11774402        3      -0.00000000       0.00125575      -0.00509857
Si       7.67917964       4.07250000      33.11774402        3       0.00000000      -0.00125575      -0.00509857
Si       3.83958982       2.71500000      31.19794911        3       0.00000000       0.00070815      -0.00018851
Si       0.00000000       4.07250000      36.95733384        2      -0.00000000      -0.01591802      -0.03033708
Si       3.83958982       2.71500000      35.03753893        2      -0.00000000       0.01199832      -0.01266924
Si       1.91979491       1.35750000      35.03753893        2      -0.00000000      -0.01199832      -0.01266924
Si       1.91979491       0.00000000      36.95733384        2       0.00000000       0.01591802      -0.03033708
Si       5.75938473       1.35750000      35.03753893        2      -0.00000000      -0.01199832      -0.01266924
Si       5.75938473       0.00000000      36.95733384        2      -0.00000000       0.01591802      -0.03033708
Si       3.83958982       4.07250000      36.95733384        2       0.00000000      -0.01591802      -0.03033708
Si       7.67917964       2.71500000      35.03753893        2       0.00000000       0.01199832      -0.01266924
Si       3.83958982       4.07250000      40.79692366        1      -0.00000000       0.29184200       0.02076463
Si       0.00000000       2.71500000      38.87712875        1      -0.00000000       0.01540587       0.14817580
Si       5.75938473       1.35750000      38.87712875        1      -0.00000000      -0.01540587       0.14817580
Si       5.75938473       0.00000000      40.79692366        1      -0.00000000      -0.29184200       0.02076463
Si       1.91979491       1.35750000      38.87712875        1       0.00000000      -0.01540587       0.14817580
Si       1.91979491       0.00000000      40.79692366        1      -0.00000000      -0.29184200       0.02076463
Si       7.67917964       4.07250000      40.79692366        1       0.00000000       0.29184200       0.02076463
Si       3.83958982       2.71500000      38.87712875        1       0.00000000       0.01540587       0.14817580
64
Lattice="7.679179643685906 0.0 0.0 3.8395898218429525 6.650364651656329 0.0 0.0 0.0 46.72883672232258" Properties=species:S:1:pos:R:3:tags:I:1:forces:R:3 config_type=slab miller=111 energy=-339.1247920245263 label_model=mpa-0 structure_key=f0859e09177bd4eebd34b4e6c51aac882eb85fc3193e9580d0789024587486e5 pbc="T T F"
Si       3.83958982       6.65036465      12.78375299        8      -0.00000000       0.00000000      -0.11446712
Si       3.83958982       2.21678822      12.00000000        8       0.00000000      -0.00000000      -0.12283146
Si       1.91979491       3.32518233      12.78375299        8      -0.00000000       0.00000000      -0.11446712
Si       5.75938473       5.54197054      12.00000000        8       0.00000000      -0.00000000      -0.12283146
Si       7.67917964       6.65036465      12.78375299        8      -0.00000000      -0.00000000      -0.11446712
Si       7.67917964       2.21678822      12.00000000        8       0.00000000       0.00000000      -0.12283146
Si       5.75938473       3.32518233      12.78375299        8      -0.00000000      -0.00000000      -0.11446712
Si       9.59897455       5.54197054      12.00000000        8      -0.00000000       0.00000000      -0.12283146
Si       7.67917964       4.43357643      15.91876495        7      -0.00000000       0.00000000       0.01485070
Si       3.83958982       6.65036465      15.13501196        7       0.00000000      -0.00000000       0.06524359
Si       5.75938473       1.10839411      15.91876495        7      -0.00000000       0.00000000       0.01485070
Si       1.91979491       3.32518233      15.13501196        7      -0.00000000      -0.00000000       0.06524359
Si       3.83958982       4.43357643      15.91876495        7      -0.00000000       0.00000000       0.01485070
Si       7.67917964       6.65036465      15.13501196        7      -0.00000000       0.00000000       0.06524359
Si       1.91979491       1.10839411      15.91876495        7      -0.00000000      -0.00000000       0.01485070
Si       5.75938473       3.32518233      15.13501196        7       0.00000000       0.00000000       0.06524359
Si       3.83958982       2.21678822      19.05377691        6      -0.00000000       0.00000000       0.01073095
Si       7.67917964       4.43357643      18.27002392        6       0.00000000      -0.00000000      -0.00402519
Si       5.75938473       5.54197054      19.05377691        6      -0.00000000      -0.00000000       0.01073095
Si       5.75938473       1.10839411      18.27002392        6       0.00000000      -0.00000000      -0.00402519
Si       7.67917964       2.21678822      19.05377691        6      -0.00000000      -0.00000000       0.01073095
Si       3.83958982       4.43357643      18.27002392        6       0.00000000      -0.00000000      -0.00402519
Si       9.59897455       5.54197054      19.05377691        6      -0.00000000       0.00000000       0.01073095
Si       1.91979491       1.10839411      18.27002392        6       0.00000000       0.00000000      -0.00402519
Si       3.83958982       6.65036465      22.18878888        5      -0.00000000      -0.00000000       0.00084091
Si       3.83958982       2.21678822      21.40503589        5       0.00000000      -0.00000000       0.00194146
Si       1.91979491       3.32518233      22.18878888        5      -0.00000000       0.00000000       0.00084091
Si       5.75938473       5.54197054      21.40503589        5      -0.00000000      -0.00000000       0.00194146
Si       7.67917964       6.65036465      22.18878888        5       0.00000000       0.00000000       0.00084091
Si       7.67917964       2.21678822      21.40503589        5      -0.00000000      -0.00000000       0.00194146
Si       5.75938473       3.32518233      22.18878888        5       0.00000000       0.00000000       0.00084091
Si       9.59897455       5.54197054      21.40503589        5       0.00000000       0.00000000       0.00194146
Si       7.67917964       4.43357643      25.32380084        4      -0.00000000      -0.00000000      -0.00194146
Si       3.83958982       6.65036465      24.54004785        4       0.00000000       0.00000000      -0.00084091
Si       5.75938473       1.10839411      25.32380084        4      -0.00000000       0.00000000      -0.00194146
Si       1.91979491       3.32518233      24.54004785        4       0.00000000      -0.00000000      -0.00084091
Si       3.83958982       4.43357643      25.32380084        4       0.00000000      -0.00000000      -0.00194146
Si       7.67917964       6.65036465      24.54004785        4       0.00000000       0.00000000      -0.00084091
Si       1.91979491       1.10839411      25.32380084        4      -0.00000000      -0.00000000      -0.00194146
Si       5.75938473       3.32518233      24.54004785        4      -0.00000000       0.00000000      -0.00084091
Si       3.83958982       2.21678822      28.45881280        3      -0.00000000       0.00000000       0.00402519
Si       7.67917964       4.43357643      27.67505981        3       0.00000000      -0.00000000      -0.01073095
Si       5.75938473       5.54197054      28.45881280        3      -0.00000000       0.00000000       0.00402519
Si       5.75938473       1.10839411      27.67505981        3       0.00000000      -0.00000000      -0.01073095
Si       7.67917964       2.21678822      28.45881280        3       0.00000000       0.00000000       0.00402519
Si       3.83958982       4.43357643      27.67505981        3       0.00000000       0.00000000      -0.01073095
Si       9.59897455       5.54197054      28.45881280        3      -0.00000000      -0.00000000       0.00402519
Si       1.91979491       1.10839411      27.67505981        3       0.00000000       0.00000000      -0.01073095
Si       3.83958982       6.65036465      31.59382476        2       0.00000000      -0.00000000      -0.06524359
Si       3.83958982       2.21678822      30.81007177        2       0.00000000      -0.00000000      -0.01485070
Si       1.91979491       3.32518233      31.59382476        2      -0.00000000       0.00000000      -0.06524359
Si       5.75938473       5.54197054      30.81007177        2      -0.00000000       0.00000000      -0.01485070
Si       7.67917964       6.65036465      31.59382476        2      -0.00000000      -0.00000000      -0.06524359
Si       7.67917964       2.21678822      30.81007177        2       0.00000000      -0.00000000      -0.01485070
Si       5.75938473       3.32518233      31.59382476        2      -0.00000000       0.00000000      -0.06524359
Si       9.59897455       5.54197054      30.81007177        2      -0.00000000      -0.00000000      -0.01485070
Si       7.67917964       4.43357643      34.72883672        1       0.00000000       0.00000000       0.12283146
Si       3.83958982       6.65036465      33.94508373        1       0.00000000       0.00000000       0.11446712
Si       5.75938473       1.10839411      34.72883672        1      -0.00000000       0.00000000       0.12283146
Si       1.91979491       3.32518233      33.94508373        1       0.00000000      -0.00000000       0.11446712
Si       3.83958982       4.43357643      34.72883672        1       0.00000000      -0.00000000       0.12283146
Si       7.67917964       6.65036465      33.94508373        1       0.00000000       0.00000000       0.11446712
Si       1.91979491       1.10839411      34.72883672        1       0.00000000      -0.00000000       0.12283146
Si       5.75938473       3.32518233      33.94508373        1      -0.00000000       0.00000000       0.11446712
80
Lattice="5.43 0.0 0.0 0.0 5.43 0.0 0.0 0.0 64.9425" Properties=species:S:1:pos:R:3:tags:I:1:forces:R:3 config_type=slab miller=100 energy=-425.7987250629119 label_model=mpa-0 structure_key=fdda711d758e9aa5f9e5307dcb28970717a7a0b07a928e9b52b09fc408af25ac pbc="T T F"
Si       1.35750000       1.35750000       7.35750000       10       0.00000000      -0.00000000       0.13851801
Si       2.71500000       2.71500000       8.71500000       10       0.00000000       0.00000000      -0.05691596
Si       4.07250000       4.07250000       7.35750000       10      -0.00000000      -0.00000000       0.13851801
Si       0.00000000       0.00000000       8.71500000       10      -0.00000000      -0.00000000      -0.05691596
Si       1.35750000       4.07250000      10.07250000       10       0.00000000      -0.00000000       0.00466394
Si       2.71500000       0.00000000       6.00000000       10      -0.00000000      -0.00000000      -0.30844850
Si       4.07250000       1.35750000      10.07250000       10      -0.00000000       0.00000000       0.00466394
Si       0.00000000       2.71500000       6.00000000       10      -0.00000000       0.00000000      -0.30844850
Si       1.35750000       1.35750000      12.78750000        9      -0.00000000      -0.00000000      -0.00417746
Si       2.71500000       2.71500000      14.14500000        9       0.00000000       0.00000000       0.00062312
Si       4.07250000       4.07250000      12.78750000        9      -0.00000000      -0.00000000      -0.00417746
Si       0.00000000       0.00000000      14.14500000        9      -0.00000000      -0.00000000       0.00062312
Si       1.35750000       4.07250000      15.50250000        9      -0.00000000      -0.00000000      -0.00027168
Si       2.71500000       0.00000000      11.43000000        9       0.00000000      -0.00000000       0.05578913
Si       4.07250000       1.35750000      15.50250000        9      -0.00000000      -0.00000000      -0.00027168
Si       0.00000000       2.71500000      11.43000000        9      -0.00000000       0.00000000       0.05578913
Si       1.35750000       1.35750000      18.21750000        8      -0.00000000      -0.00000000      -0.00018536
Si       2.71500000       2.71500000      19.57500000        8       0.00000000       0.00000000       0.00001324
Si       4.07250000       4.07250000      18.21750000        8      -0.00000000      -0.00000000      -0.00018536
Si       0.00000000       0.00000000      19.57500000        8      -0.00000000      -0.00000000       0.00001324
Si       1.35750000       4.07250000      20.93250000        8      -0.00000000      -0.00000000       0.00006052
Si       2.71500000       0.00000000      16.86000000        8       0.00000000      -0.00000000      -0.00011309
Si       4.07250000       1.35750000      20.93250000        8      -0.00000000      -0.00000000       0.00006052
Si       0.00000000       2.71500000      16.86000000        8       0.00000000       0.00000000      -0.00011309
Si       1.35750000       1.35750000      23.64750000        7      -0.00000000      -0.00000000      -0.00000127
Si       2.71500000       2.71500000      25.00500000        7       0.00000000       0.00000000      -0.00000032
Si       4.07250000       4.07250000      23.64750000        7      -0.00000000      -0.00000000      -0.00000127
Si       0.00000000       0.00000000      25.00500000        7      -0.00000000      -0.00000000      -0.00000032
Si       1.35750000       4.07250000      26.36250000        7      -0.00000000      -0.00000000      -0.00000001
Si       2.71500000       0.00000000      22.29000000        7       0.00000000       0.00000000      -0.00000247
Si       4.07250000       1.35750000      26.36250000        7      -0.00000000      -0.00000000      -0.00000001
Si       0.00000000       2.71500000      22.29000000        7       0.00000000       0.00000000      -0.00000247
Si       1.35750000       1.35750000      29.07750000        6      -0.00000000      -0.00000000       0.00000000
Si       2.71500000       2.71500000      30.43500000        6       0.00000000       0.00000000       0.00000000
Si       4.07250000       4.07250000      29.07750000        6      -0.00000000      -0.00000000       0.00000000
Si       0.00000000       0.00000000      30.43500000        6       0.00000000      -0.00000000       0.00000000
Si       1.35750000       4.07250000      31.79250000        6      -0.00000000      -0.00000000      -0.00000000
Si       2.71500000       0.00000000      27.72000000        6       0.00000000       0.00000000      -0.00000000
Si       4.07250000       1.35750000      31.79250000        6      -0.00000000      -0.00000000      -0.00000000
Si       0.00000000       2.71500000      27.72000000        6       0.00000000       0.00000000      -0.00000000
Si       1.35750000       1.35750000      34.50750000        5      -0.00000000      -0.00000000      -0.00000000
Si       2.71500000       2.71500000      35.86500000        5       0.00000000       0.00000000      -0.00000000
Si       4.07250000       4.07250000      34.50750000        5      -0.00000000      -0.00000000      -0.00000000
Si       0.00000000       0.00000000      35.86500000        5      -0.00000000      -0.00000000      -0.00000000
Si       1.35750000       4.07250000      37.22250000        5      -0.00000000      -0.00000000       0.00000000
Si       2.71500000       0.00000000      33.15000000        5       0.00000000       0.00000000       0.00000000
Si       4.07250000       1.35750000      37.22250000        5      -0.00000000      -0.00000000       0.00000000
Si       0.00000000       2.71500000      33.15000000        5      -0.00000000       0.00000000       0.00000000
Si       1.35750000       1.35750000      39.93750000        4      -0.00000000      -0.00000000       0.00000032
Si       2.71500000       2.71500000      41.29500000        4       0.00000000       0.00000000       0.00000127
Si       4.07250000       4.07250000      39.93750000        4      -0.00000000      -0.00000000       0.00000032
Si       0.00000000       0.00000000      41.29500000        4       0.00000000      -0.00000000       0.00000127
Si       1.35750000       4.07250000      42.65250000        4      -0.00000000       0.00000000       0.00000247
Si       2.71500000       0.00000000      38.58000000        4       0.00000000      -0.00000000       0.00000001
Si       4.07250000       1.35750000      42.65250000        4       0.00000000      -0.00000000       0.00000247
Si       0.00000000       2.71500000      38.58000000        4      -0.00000000       0.00000000       0.00000001
Si       1.35750000       1.35750000      45.36750000        3       0.00000000      -0.00000000      -0.00001324
Si       2.71500000       2.71500000      46.72500000        3       0.00000000       0.00000000       0.00018536
Si       4.07250000       4.07250000      45.36750000        3      -0.00000000      -0.00000000      -0.00001324
Si       0.00000000       0.00000000      46.72500000        3      -0.00000000       0.00000000       0.00018536
Si       1.35750000       4.07250000      48.08250000        3      -0.00000000      -0.00000000       0.00011309
Si       2.71500000       0.00000000      44.01000000        3       0.00000000      -0.00000000      -0.00006052
Si       4.07250000       1.35750000      48.08250000        3      -0.00000000      -0.00000000       0.00011309
Si       0.00000000       2.71500000      44.01000000        3      -0.00000000       0.00000000      -0.00006052
Si       1.35750000       1.35750000      50.79750000        2       0.00000000       0.00000000      -0.00062312
Si       2.71500000       2.71500000      52.15500000        2       0.00000000       0.00000000       0.00417746
Si       4.07250000       4.07250000      50.79750000        2      -0.00000000      -0.00000000      -0.00062312
Si       0.00000000       0.00000000      52.15500000        2      -0.00000000      -0.00000000       0.00417746
Si       1.35750000       4.07250000      53.51250000        2      -0.00000000      -0.00000000      -0.05578913
Si       2.71500000       0.00000000      49.44000000        2       0.00000000       0.00000000       0.00027168
Si       4.07250000       1.35750000      53.51250000        2      -0.00000000      -0.00000000      -0.05578913
Si       0.00000000       2.71500000      49.44000000        2      -0.00000000       0.00000000       0.00027168
Si       1.35750000       1.35750000      56.22750000        1      -0.00000000      -0.00000000       0.05691596
Si       2.71500000       2.71500000      57.58500000        1       0.00000000       0.00000000      -0.13851801
Si       4.07250000       4.07250000      56.22750000        1      -0.00000000      -0.00000000       0.05691596
Si       0.00000000       0.00000000      57.58500000        1       0.00000000       0.00000000      -0.13851801
Si       1.35750000       4.07250000      58.94250000        1      -0.00000000      -0.00000000       0.30844850
Si       2.71500000       0.00000000      54.87000000        1       0.00000000      -0.00000000      -0.00466394
Si       4.07250000       1.35750000      58.94250000        1      -0.00000000       0.00000000       0.30844850
Si       0.00000000       2.71500000      54.87000000        1       0.00000000       0.00000000      -0.00466394
80
Lattice="7.679179643685906 0.0 0.0 0.0 5.43 0.0 0.0 0.0 48.476103307508055" Properties=species:S:1:pos:R:3:tags:I:1:forces:R:3 config_type=slab miller=110 energy=-426.00449664930585 label_model=mpa-0 structure_key=31bb6218bfaf84bc124cca0067d5bf7d31c553d9c28c3cb1514897a55c7f1217 pbc="T T F"
Si       0.00000000       4.07250000       7.91979491       10      -0.00000000      -0.01540587      -0.14817580
Si       3.83958982       2.71500000       6.00000000       10       0.00000000      -0.29184200      -0.02076463
Si       1.91979491       1.35750000       6.00000000       10       0.00000000       0.29184200      -0.02076463
Si       1.91979491       0.00000000       7.91979491       10       0.00000000       0.01540587      -0.14817580
Si       5.75938473       1.35750000       6.00000000       10      -0.00000000       0.29184200      -0.02076463
Si       5.75938473       0.00000000       7.91979491       10      -0.00000000       0.01540587      -0.14817580
Si       3.83958982       4.07250000       7.91979491       10      -0.00000000      -0.01540587      -0.14817580
Si       0.00000000       2.71500000       6.00000000       10      -0.00000000      -0.29184200      -0.02076463
Si       3.83958982       4.07250000      11.75938473        9      -0.00000000      -0.01199832       0.01266924
Si       0.00000000       2.71500000       9.83958982        9       0.00000000       0.01591802       0.03033708
Si       5.75938473       1.35750000       9.83958982        9       0.00000000      -0.01591802       0.03033708
Si       5.75938473       0.00000000      11.75938473        9      -0.00000000       0.01199832       0.01266924
Si       1.91979491       1.35750000       9.83958982        9      -0.00000000      -0.01591802       0.03033708
Si       1.91979491       0.00000000      11.75938473        9       0.00000000       0.01199832       0.01266924
Si       0.00000000       4.07250000      11.75938473        9      -0.00000000      -0.01199832       0.01266924
Si       3.83958982       2.71500000       9.83958982        9       0.00000000       0.01591802       0.03033708
Si       0.00000000       4.07250000      15.59897455        8      -0.00000000      -0.00070815       0.00018851
Si       3.83958982       2.71500000      13.67917964        8       0.00000000       0.00125575       0.00509857
Si       1.91979491       1.35750000      13.67917964        8      -0.00000000      -0.00125575       0.00509857
Si       1.91979491       0.00000000      15.59897455        8       0.00000000       0.00070815       0.00018851
Si       5.75938473       1.35750000      13.67917964        8       0.00000000      -0.00125575       0.00509857
Si       5.75938473       0.00000000      15.59897455        8       0.00000000       0.00070815       0.00018851
Si       3.83958982       4.07250000      15.59897455        8       0.00000000      -0.00070815       0.00018851
Si       0.00000000       2.71500000      13.67917964        8      -0.00000000       0.00125575       0.00509857
Si       3.83958982       4.07250000      19.43856438        7      -0.00000000      -0.00000784      -0.00002463
Si       0.00000000       2.71500000      17.51876947        7       0.00000000       0.00001150       0.00014923
Si       5.75938473       1.35750000      17.51876947        7      -0.00000000      -0.00001150       0.00014923
Si       5.75938473       0.00000000      19.43856438        7       0.00000000       0.00000784      -0.00002463
Si       1.91979491       1.35750000      17.51876947        7       0.00000000      -0.00001150       0.00014923
Si       1.91979491       0.00000000      19.43856438        7      -0.00000000       0.00000784      -0.00002463
Si       7.67917964       4.07250000      19.43856438        7       0.00000000      -0.00000784      -0.00002463
Si       3.83958982       2.71500000      17.51876947        7      -0.00000000       0.00001150       0.00014923
Si       0.00000000       4.07250000      23.27815420        6      -0.00000000      -0.00000000      -0.00000002
Si       3.83958982       2.71500000      21.35835929        6       0.00000000       0.00000059      -0.00000260
Si       1.91979491       1.35750000      21.35835929        6       0.00000000      -0.00000059      -0.00000260
Si       1.91979491       0.00000000      23.27815420        6      -0.00000000       0.00000000      -0.00000002
Si       5.75938473       1.35750000      21.35835929        6      -0.00000000      -0.00000059      -0.00000260
Si       5.75938473       0.00000000      23.27815420        6       0.00000000       0.00000000      -0.00000002
Si       3.83958982       4.07250000      23.27815420        6       0.00000000      -0.00000000      -0.00000002
Si       0.00000000       2.71500000      21.35835929        6       0.00000000       0.00000059      -0.00000260
Si       3.83958982       4.07250000      27.11774402        5      -0.00000000      -0.00000059       0.00000260
Si       0.00000000       2.71500000      25.19794911        5      -0.00000000       0.00000000       0.00000002
Si       5.75938473       1.35750000      25.19794911        5      -0.00000000      -0.00000000       0.00000002
Si       5.75938473       0.00000000      27.11774402        5      -0.00000000       0.00000059       0.00000260
Si       1.91979491       1.35750000      25.19794911        5      -0.00000000      -0.00000000       0.00000002
Si       1.91979491       0.00000000      27.11774402        5      -0.00000000       0.00000059       0.00000260
Si       0.00000000       4.07250000      27.11774402        5       0.00000000      -0.00000059       0.00000260
Si       3.83958982       2.71500000      25.19794911        5       0.00000000       0.00000000       0.00000002
Si       0.00000000       4.07250000      30.95733384        4      -0.00000000      -0.00001150      -0.00014923
Si       3.83958982       2.71500000      29.03753893        4      -0.00000000       0.00000784       0.00002463
Si       1.91979491       1.35750000      29.03753893        4      -0.00000000      -0.00000784       0.00002463
Si       1.91979491       0.00000000      30.95733384        4       0.00000000       0.00001150      -0.00014923
Si       5.75938473       1.35750000      29.03753893        4       0.00000000      -0.00000784       0.00002463
Si       5.75938473       0.00000000      30.95733384        4      -0.00000000       0.00001150      -0.00014923
Si       3.83958982       4.07250000      30.95733384        4      -0.00000000      -0.00001150      -0.00014923
Si       0.00000000       2.71500000      29.03753893        4       0.00000000       0.00000784       0.00002463
Si       3.83958982       4.07250000      34.79692366        3      -0.00000000      -0.00125575      -0.00509857
Si       0.00000000       2.71500000      32.87712875        3      -0.00000000       0.00070815      -0.00018851
Si       5.75938473       1.35750000      32.87712875        3       0.00000000      -0.00070815      -0.00018851
Si       5.75938473       0.00000000      34.79692366        3       0.00000000       0.00125575      -0.00509857
Si       1.91979491       1.35750000      32.87712875        3       0.00000000      -0.00070815      -0.00018851
Si       1.91979491       0.00000000      34.79692366        3       0.00000000       0.00125575      -0.00509857
Si       0.00000000       4.07250000      34.79692366        3       0.00000000      -0.00125575      -0.00509857
Si       3.83958982       2.71500000      32.87712875        3       0.00000000       0.00070815      -0.00018851
Si       0.00000000       4.07250000      38.63651349        2      -0.00000000      -0.01591802      -0.03033708
Si       3.83958982       2.71500000      36.71671857        2      -0.00000000       0.01199832      -0.01266924
Si       1.91979491       1.35750000      36.71671857        2      -0.00000000      -0.01199832      -0.01266924
Si       1.91979491       0.00000000      38.63651349        2       0.00000000       0.01591802      -0.03033708
Si       5.75938473       1.35750000      36.71671857        2       0.00000000      -0.01199832      -0.01266924
Si       5.75938473       0.00000000      38.63651349        2       0.00000000       0.01591802      -0.03033708
Si       3.83958982       4.07250000      38.63651349        2      -0.00000000      -0.01591802      -0.03033708
Si       0.00000000       2.71500000      36.71671857        2       0.00000000       0.01199832      -0.01266924
Si       3.83958982       4.07250000      42.47610331        1      -0.00000000       0.29184200       0.02076463
Si       0.00000000       2.71500000      40.55630840        1       0.00000000       0.01540587       0.14817580
Si       5.75938473       1.35750000      40.55630840        1      -0.00000000      -0.01540587       0.14817580
Si       5.75938473       0.00000000      42.47610331        1       0.00000000      -0.29184200       0.02076463
Si       1.91979491       1.35750000      40.55630840        1       0.00000000      -0.01540587       0.14817580
Si       1.91979491       0.00000000      42.47610331        1       0.00000000      -0.29184200       0.02076463
Si       0.00000000       4.07250000      42.47610331        1       0.00000000       0.29184200       0.02076463
Si       3.83958982       2.71500000      40.55630840        1      -0.00000000       0.01540587       0.14817580
80
Lattice="7.679179643685906 0.0 0.0 3.8395898218429525 6.650364651656329 0.0 0.0 0.0 40.99886064572193" Properties=species:S:1:pos:R:3:tags:I:1:forces:R:3 config_type=slab miller=111 energy=-425.72290904152965 label_model=mpa-0 structure_key=973495f5cb8071c387d27c3afdcad250108504e9d52c1fbccc350b6135dc41d1 pbc="T T F"
Si       0.00000000       0.00000000       6.78375299       10       0.00000000      -0.00000000      -0.11446712
Si       3.83958982       2.21678822       6.00000000       10       0.00000000       0.00000000      -0.12283146
Si       1.91979491       3.32518233       6.78375299       10      -0.00000000       0.00000000      -0.11446712
Si       5.75938473       5.54197054       6.00000000       10      -0.00000000      -0.00000000      -0.12283146
Si       3.83958982       0.00000000       6.78375299       10       0.00000000      -0.00000000      -0.11446712
Si       7.67917964       2.21678822       6.00000000       10      -0.00000000       0.00000000      -0.12283146
Si       5.75938473       3.32518233       6.78375299       10      -0.00000000       0.00000000      -0.11446712
Si       9.59897455       5.54197054       6.00000000       10       0.00000000      -0.00000000      -0.12283146
Si       7.67917964       4.43357643       9.91876495        9       0.00000000      -0.00000000       0.01485070
Si       7.67917964       0.00000000       9.13501196        9       0.00000000      -0.00000000       0.06524359
Si       5.75938473       1.10839411       9.91876495        9       0.00000000       0.00000000       0.01485070
Si       1.91979491       3.32518233       9.13501196        9       0.00000000      -0.00000000       0.06524359
Si       3.83958982       4.43357643       9.91876495        9      -0.00000000      -0.00000000       0.01485070
Si       3.83958982       0.00000000       9.13501196        9      -0.00000000       0.00000000       0.06524359
Si       1.91979491       1.10839411       9.91876495        9      -0.00000000      -0.00000000       0.01485070
Si       5.75938473       3.32518233       9.13501196        9       0.00000000       0.00000000       0.06524359
Si       3.83958982       2.21678822      13.05377691        8      -0.00000000       0.00000000       0.01073067
Si       7.67917964       4.43357643      12.27002392        8       0.00000000       0.00000000      -0.00402519
Si       5.75938473       5.54197054      13.05377691        8      -0.00000000       0.00000000       0.01073067
Si       5.75938473       1.10839411      12.27002392        8       0.00000000      -0.00000000      -0.00402519
Si       7.67917964       2.21678822      13.05377691        8      -0.00000000      -0.00000000       0.01073067
Si       3.83958982       4.43357643      12.27002392        8      -0.00000000      -0.00000000      -0.00402519
Si       9.59897455       5.54197054      13.05377691        8       0.00000000      -0.00000000       0.01073067
Si       1.91979491       1.10839411      12.27002392        8      -0.00000000       0.00000000      -0.00402519
Si       0.00000000       0.00000000      16.18878888        7      -0.00000000      -0.00000000       0.00089268
Si       3.83958982       2.21678822      15.40503589        7       0.00000000      -0.00000000       0.00194183
Si       1.91979491       3.32518233      16.18878888        7      -0.00000000       0.00000000       0.00089268
Si       5.75938473       5.54197054      15.40503589        7      -0.00000000      -0.00000000       0.00194183
Si       3.83958982       0.00000000      16.18878888        7       0.00000000      -0.00000000       0.00089268
Si       7.67917964       2.21678822      15.40503589        7      -0.00000000      -0.00000000       0.00194183
Si       5.75938473       3.32518233      16.18878888        7      -0.00000000       0.00000000       0.00089268
Si       9.59897455       5.54197054      15.40503589        7      -0.00000000       0.00000000       0.00194183
Si       7.67917964       4.43357643      19.32380084        6      -0.00000000      -0.00000000       0.00000065
Si       7.67917964       0.00000000      18.54004785        6       0.00000000      -0.00000000       0.00005178
Si       5.75938473       1.10839411      19.32380084        6      -0.00000000       0.00000000       0.00000065
Si       1.91979491       3.32518233      18.54004785        6       0.00000000      -0.00000000       0.00005178
Si       3.83958982       4.43357643      19.32380084        6       0.00000000      -0.00000000       0.00000065
Si       3.83958982       0.00000000      18.54004785        6       0.00000000       0.00000000       0.00005178
Si       1.91979491       1.10839411      19.32380084        6      -0.00000000      -0.00000000       0.00000065
Si       5.75938473       3.32518233      18.54004785        6       0.00000000       0.00000000       0.00005178
Si       3.83958982       2.21678822      22.45881280        5      -0.00000000      -0.00000000      -0.00005178
Si       7.67917964       4.43357643      21.67505981        5       0.00000000      -0.00000000      -0.00000065
Si       5.75938473       5.54197054      22.45881280        5      -0.00000000       0.00000000      -0.00005178
Si       5.75938473       1.10839411      21.67505981        5       0.00000000      -0.00000000      -0.00000065
Si       7.67917964       2.21678822      22.45881280        5      -0.00000000      -0.00000000      -0.00005178
Si       3.83958982       4.43357643      21.67505981        5      -0.00000000       0.00000000      -0.00000065
Si       9.59897455       5.54197054      22.45881280        5       0.00000000      -0.00000000      -0.00005178
Si       1.91979491       1.10839411      21.67505981        5       0.00000000       0.00000000      -0.00000065
Si       0.00000000       0.00000000      25.59382476        4       0.00000000      -0.00000000      -0.00194183
Si       3.83958982       2.21678822      24.81007177        4       0.00000000      -0.00000000      -0.00089268
Si       1.91979491       3.32518233      25.59382476        4      -0.00000000       0.00000000      -0.00194183
Si       5.75938473       5.54197054      24.81007177        4      -0.00000000       0.00000000      -0.00089268
Si       3.83958982       0.00000000      25.59382476        4       0.00000000       0.00000000      -0.00194183
Si       7.67917964       2.21678822      24.81007177        4       0.00000000      -0.00000000      -0.00089268
Si       5.75938473       3.32518233      25.59382476        4      -0.00000000      -0.00000000      -0.00194183
Si       9.59897455       5.54197054      24.81007177        4      -0.00000000      -0.00000000      -0.00089268
Si       7.67917964       4.43357643      28.72883672        3       0.00000000       0.00000000       0.00402519
Si       7.67917964       0.00000000      27.94508373        3       0.00000000      -0.00000000      -0.01073067
Si       5.75938473       1.10839411      28.72883672        3      -0.00000000       0.00000000       0.00402519
Si       1.91979491       3.32518233      27.94508373        3       0.00000000      -0.00000000      -0.01073067
Si       3.83958982       4.43357643      28.72883672        3       0.00000000      -0.00000000       0.00402519
Si       3.83958982       0.00000000      27.94508373        3      -0.00000000       0.00000000      -0.01073067
Si       1.91979491       1.10839411      28.72883672        3      -0.00000000      -0.00000000       0.00402519
Si       5.75938473       3.32518233      27.94508373        3      -0.00000000       0.00000000      -0.01073067
Si       3.83958982       2.21678822      31.86384868        2      -0.00000000      -0.00000000      -0.06524359
Si       7.67917964       4.43357643      31.08009569        2      -0.00000000       0.00000000      -0.01485070
Si       5.75938473       5.54197054      31.86384868        2      -0.00000000      -0.00000000      -0.06524359
Si       5.75938473       1.10839411      31.08009569        2      -0.00000000       0.00000000      -0.01485070
Si       7.67917964       2.21678822      31.86384868        2      -0.00000000       0.00000000      -0.06524359
Si       3.83958982       4.43357643      31.08009569        2       0.00000000       0.00000000      -0.01485070
Si       9.59897455       5.54197054      31.86384868        2      -0.00000000       0.00000000      -0.06524359
Si       1.91979491       1.10839411      31.08009569        2       0.00000000      -0.00000000      -0.01485070
Si       0.00000000       0.00000000      34.99886065        1      -0.00000000      -0.00000000       0.12283146
Si       3.83958982       2.21678822      34.21510766        1       0.00000000      -0.00000000       0.11446712
Si       1.91979491       3.32518233      34.99886065        1      -0.00000000      -0.00000000       0.12283146
Si       5.75938473       5.54197054      34.21510766        1       0.00000000      -0.00000000       0.11446712
Si       3.83958982       0.00000000      34.99886065        1      -0.00000000       0.00000000       0.12283146
Si       7.67917964       2.21678822      34.21510766        1       0.00000000       0.00000000       0.11446712
Si       5.75938473       3.32518233      34.99886065        1      -0.00000000       0.00000000       0.12283146
Si       9.59897455       5.54197054      34.21510766        1       0.00000000      -0.00000000       0.11446712
80
Lattice="5.43 0.0 0.0 0.0 5.43 0.0 0.0 0.0 68.9425" Properties=species:S:1:pos:R:3:tags:I:1:forces:R:3 config_type=slab miller=100 energy=-425.7987250629119 label_model=mpa-0 structure_key=5ce35ccbf57c151ae516498a8cfa00f2fda1af67da9ea416e74720400de737e8 pbc="T T F"
Si       1.35750000       1.35750000       9.35750000       10       0.00000000      -0.00000000       0.13851801
Si       2.71500000       2.71500000      10.71500000       10       0.00000000       0.00000000      -0.05691596
Si       4.07250000       4.07250000       9.35750000       10       0.00000000       0.00000000       0.13851801
Si       0.00000000       0.00000000      10.71500000       10      -0.00000000      -0.00000000      -0.05691596
Si       1.35750000       4.07250000      12.07250000       10       0.00000000      -0.00000000       0.00466394
Si       2.71500000       0.00000000       8.00000000       10      -0.00000000       0.00000000      -0.30844850
Si       4.07250000       1.35750000      12.07250000       10       0.00000000      -0.00000000       0.00466394
Si       0.00000000       2.71500000       8.00000000       10      -0.00000000       0.00000000      -0.30844850
Si       1.35750000       1.35750000      14.78750000        9      -0.00000000      -0.00000000      -0.00417746
Si       2.71500000       2.71500000      16.14500000        9       0.00000000       0.00000000       0.00062312
Si       4.07250000       4.07250000      14.78750000        9       0.00000000       0.00000000      -0.00417746
Si       0.00000000       0.00000000      16.14500000        9      -0.00000000      -0.00000000       0.00062312
Si       1.35750000       4.07250000      17.50250000        9      -0.00000000      -0.00000000      -0.00027168
Si       2.71500000       0.00000000      13.43000000        9       0.00000000      -0.00000000       0.05578913
Si       4.07250000       1.35750000      17.50250000        9      -0.00000000      -0.00000000      -0.00027168
Si       0.00000000       2.71500000      13.43000000        9      -0.00000000       0.00000000       0.05578913
Si       1.35750000       1.35750000      20.21750000        8      -0.00000000      -0.00000000      -0.00018536
Si       2.71500000       2.71500000      21.57500000        8       0.00000000       0.00000000       0.00001324
Si       4.07250000       4.07250000      20.21750000        8      -0.00000000       0.00000000      -0.00018536
Si       0.00000000       0.00000000      21.57500000        8      -0.00000000      -0.00000000       0.00001324
Si       1.35750000       4.07250000      22.93250000        8      -0.00000000      -0.00000000       0.00006052
Si       2.71500000       0.00000000      18.86000000        8       0.00000000      -0.00000000      -0.00011309
Si       4.07250000       1.35750000      22.93250000        8      -0.00000000      -0.00000000       0.00006052
Si       0.00000000       2.71500000      18.86000000        8      -0.00000000       0.00000000      -0.00011309
Si       1.35750000       1.35750000      25.64750000        7      -0.00000000      -0.00000000      -0.00000127
Si       2.71500000       2.71500000      27.00500000        7       0.00000000       0.00000000      -0.00000032
Si       4.07250000       4.07250000      25.64750000        7       0.00000000      -0.00000000      -0.00000127
Si       0.00000000       0.00000000      27.00500000        7      -0.00000000      -0.00000000      -0.00000032
Si       1.35750000       4.07250000      28.36250000        7      -0.00000000      -0.00000000      -0.00000001
Si       2.71500000       0.00000000      24.29000000        7       0.00000000       0.00000000      -0.00000247
Si       4.07250000       1.35750000      28.36250000        7      -0.00000000      -0.00000000      -0.00000001
Si       0.00000000       2.71500000      24.29000000        7       0.00000000       0.00000000      -0.00000247
Si       1.35750000       1.35750000      31.07750000        6      -0.00000000      -0.00000000      -0.00000000
Si       2.71500000       2.71500000      32.43500000        6       0.00000000       0.00000000      -0.00000000
Si       4.07250000       4.07250000      31.07750000        6      -0.00000000      -0.00000000      -0.00000000
Si       0.00000000       0.00000000      32.43500000        6      -0.00000000      -0.00000000      -0.00000000
Si       1.35750000       4.07250000      33.79250000        6      -0.00000000      -0.00000000       0.00000000
Si       2.71500000       0.00000000      29.72000000        6       0.00000000      -0.00000000       0.00000000
Si       4.07250000       1.35750000      33.79250000        6      -0.00000000      -0.00000000       0.00000000
Si       0.00000000       2.71500000      29.72000000        6      -0.00000000       0.00000000       0.00000000
Si       1.35750000       1.35750000      36.50750000        5      -0.00000000      -0.00000000      -0.00000000
Si       2.71500000       2.71500000      37.86500000        5       0.00000000       0.00000000      -0.00000000
Si       4.07250000       4.07250000      36.50750000        5      -0.00000000      -0.00000000      -0.00000000
Si       0.00000000       0.00000000      37.86500000        5       0.00000000      -0.00000000      -0.00000000
Si       1.35750000       4.07250000      39.22250000        5      -0.00000000      -0.00000000       0.00000000
Si       2.71500000       0.00000000      35.15000000        5       0.00000000      -0.00000000       0.00000000
Si       4.07250000       1.35750000      39.22250000        5      -0.00000000      -0.00000000       0.00000000
Si       0.00000000       2.71500000      35.15000000        5      -0.00000000       0.00000000       0.00000000
Si       1.35750000       1.35750000      41.93750000        4       0.00000000      -0.00000000       0.00000032
Si       2.71500000       2.71500000      43.29500000        4       0.00000000       0.00000000       0.00000127
Si       4.07250000       4.07250000      41.93750000        4      -0.00000000      -0.00000000       0.00000032
Si       0.00000000       0.00000000      43.29500000        4       0.00000000      -0.00000000       0.00000127
Si       1.35750000       4.07250000      44.65250000        4       0.00000000       0.00000000       0.00000247
Si       2.71500000       0.00000000      40.58000000        4       0.00000000      -0.00000000       0.00000001
Si       4.07250000       1.35750000      44.65250000        4      -0.00000000      -0.00000000       0.00000247
Si       0.00000000       2.71500000      40.58000000        4      -0.00000000       0.00000000       0.00000001
Si       1.35750000       1.35750000      47.36750000        3      -0.00000000      -0.00000000      -0.00001324
Si       2.71500000       2.71500000      48.72500000        3       0.00000000       0.00000000       0.00018536
Si       4.07250000       4.07250000      47.36750000        3      -0.00000000      -0.00000000      -0.00001324
Si       0.00000000       0.00000000      48.72500000        3      -0.00000000       0.00000000       0.00018536
Si       1.35750000       4.07250000      50.08250000        3      -0.00000000      -0.00000000       0.00011309
Si       2.71500000       0.00000000      46.01000000        3       0.00000000      -0.00000000      -0.00006052
Si       4.07250000       1.35750000      50.08250000        3      -0.00000000      -0.00000000       0.00011309
Si       0.00000000       2.71500000      46.01000000        3      -0.00000000      -0.00000000      -0.00006052
Si       1.35750000       1.35750000      52.79750000        2       0.00000000       0.00000000      -0.00062312
Si       2.71500000       2.71500000      54.15500000        2       0.00000000       0.00000000       0.00417746
Si       4.07250000       4.07250000      52.79750000        2       0.00000000      -0.00000000      -0.00062312
Si       0.00000000       0.00000000      54.15500000        2      -0.00000000      -0.00000000       0.00417746
Si       1.35750000       4.07250000      55.51250000        2      -0.00000000      -0.00000000      -0.05578913
Si       2.71500000       0.00000000      51.44000000        2       0.00000000      -0.00000000       0.00027168
Si       4.07250000       1.35750000      55.51250000        2      -0.00000000      -0.00000000      -0.05578913
Si       0.00000000       2.71500000      51.44000000        2      -0.00000000       0.00000000       0.00027168
Si       1.35750000       1.35750000      58.22750000        1       0.00000000       0.00000000       0.05691596
Si       2.71500000       2.71500000      59.58500000        1       0.00000000      -0.00000000      -0.13851801
Si       4.07250000       4.07250000      58.22750000        1      -0.00000000      -0.00000000       0.05691596
Si       0.00000000       0.00000000      59.58500000        1      -0.00000000      -0.00000000      -0.13851801
Si       1.35750000       4.07250000      60.94250000        1      -0.00000000       0.00000000       0.30844850
Si       2.71500000       0.00000000      56.87000000        1       0.00000000      -0.00000000      -0.00466394
Si       4.07250000       1.35750000      60.94250000        1       0.00000000       0.00000000       0.30844850
Si       0.00000000       2.71500000      56.87000000        1      -0.00000000       0.00000000      -0.00466394
80
Lattice="7.679179643685906 0.0 0.0 0.0 5.43 0.0 0.0 0.0 52.476103307508055" Properties=species:S:1:pos:R:3:tags:I:1:forces:R:3 config_type=slab miller=110 energy=-426.0044966493059 label_model=mpa-0 structure_key=5c36503efa4ed630efead19614ac15c6b5e7df4e689db2dbc6f4831d5e139a81 pbc="T T F"
Si       0.00000000       4.07250000       9.91979491       10      -0.00000000      -0.01540587      -0.14817580
Si       3.83958982       2.71500000       8.00000000       10       0.00000000      -0.29184200      -0.02076463
Si       1.91979491       1.35750000       8.00000000       10       0.00000000       0.29184200      -0.02076463
Si       1.91979491       0.00000000       9.91979491       10       0.00000000       0.01540587      -0.14817580
Si       5.75938473       1.35750000       8.00000000       10      -0.00000000       0.29184200      -0.02076463
Si       5.75938473       0.00000000       9.91979491       10      -0.00000000       0.01540587      -0.14817580
Si       3.83958982       4.07250000       9.91979491       10      -0.00000000      -0.01540587      -0.14817580
Si       0.00000000       2.71500000       8.00000000       10       0.00000000      -0.29184200      -0.02076463
Si       3.83958982       4.07250000      13.75938473        9       0.00000000      -0.01199832       0.01266924
Si       0.00000000       2.71500000      11.83958982        9      -0.00000000       0.01591802       0.03033708
Si       5.75938473       1.35750000      11.83958982        9       0.00000000      -0.01591802       0.03033708
Si       5.75938473       0.00000000      13.75938473        9      -0.00000000       0.01199832       0.01266924
Si       1.91979491       1.35750000      11.83958982        9      -0.00000000      -0.01591802       0.03033708
Si       1.91979491       0.00000000      13.75938473        9       0.00000000       0.01199832       0.01266924
Si       0.00000000       4.07250000      13.75938473        9      -0.00000000      -0.01199832       0.01266924
Si       3.83958982       2.71500000      11.83958982        9       0.00000000       0.01591802       0.03033708
Si       0.00000000       4.07250000      17.59897455        8      -0.00000000      -0.00070815       0.00018851
Si       3.83958982       2.71500000      15.67917964        8      -0.00000000       0.00125575       0.00509857
Si       1.91979491       1.35750000      15.67917964        8      -0.00000000      -0.00125575       0.00509857
Si       1.91979491       0.00000000      17.59897455        8       0.00000000       0.00070815       0.00018851
Si       5.75938473       1.35750000      15.67917964        8       0.00000000      -0.00125575       0.00509857
Si       5.75938473       0.00000000      17.59897455        8      -0.00000000       0.00070815       0.00018851
Si       3.83958982       4.07250000      17.59897455        8       0.00000000      -0.00070815       0.00018851
Si       0.00000000       2.71500000      15.67917964        8       0.00000000       0.00125575       0.00509857
Si       3.83958982       4.07250000      21.43856438        7      -0.00000000      -0.00000784      -0.00002463
Si       0.00000000       2.71500000      19.51876947        7       0.00000000       0.00001150       0.00014923
Si       5.75938473       1.35750000      19.51876947        7      -0.00000000      -0.00001150       0.00014923
Si       5.75938473       0.00000000      21.43856438        7       0.00000000       0.00000784      -0.00002463
Si       1.91979491       1.35750000      19.51876947        7       0.00000000      -0.00001150       0.00014923
Si       1.91979491       0.00000000      21.43856438        7      -0.00000000       0.00000784      -0.00002463
Si       7.67917964       4.07250000      21.43856438        7       0.00000000      -0.00000784      -0.00002463
Si       3.83958982       2.71500000      19.51876947        7      -0.00000000       0.00001150       0.00014923
Si       0.00000000       4.07250000      25.27815420        6      -0.00000000      -0.00000000      -0.00000002
Si       3.83958982       2.71500000      23.35835929        6       0.00000000       0.00000059      -0.00000260
Si       1.91979491       1.35750000      23.35835929        6       0.00000000      -0.00000059      -0.00000260
Si       1.91979491       0.00000000      25.27815420        6      -0.00000000       0.00000000      -0.00000002
Si       5.75938473       1.35750000      23.35835929        6      -0.00000000      -0.00000059      -0.00000260
Si       5.75938473       0.00000000      25.27815420        6       0.00000000       0.00000000      -0.00000002
Si       3.83958982       4.07250000      25.27815420        6       0.00000000      -0.00000000      -0.00000002
Si       0.00000000       2.71500000      23.35835929        6       0.00000000       0.00000059      -0.00000260
Si       3.83958982       4.07250000      29.11774402        5       0.00000000      -0.00000059       0.00000260
Si       0.00000000       2.71500000      27.19794911        5      -0.00000000       0.00000000       0.00000002
Si       5.75938473       1.35750000      27.19794911        5      -0.00000000      -0.00000000       0.00000002
Si       5.75938473       0.00000000      29.11774402        5      -0.00000000       0.00000059       0.00000260
Si       1.91979491       1.35750000      27.19794911        5      -0.00000000      -0.00000000       0.00000002
Si       1.91979491       0.00000000      29.11774402        5      -0.00000000       0.00000059       0.00000260
Si       0.00000000       4.07250000      29.11774402        5       0.00000000      -0.00000059       0.00000260
Si       3.83958982       2.71500000      27.19794911        5       0.00000000       0.00000000       0.00000002
Si       0.00000000       4.07250000      32.95733384        4      -0.00000000      -0.00001150      -0.00014923
Si       3.83958982       2.71500000      31.03753893        4      -0.00000000       0.00000784       0.00002463
Si       1.91979491       1.35750000      31.03753893        4      -0.00000000      -0.00000784       0.00002463
Si       1.91979491       0.00000000      32.95733384        4       0.00000000       0.00001150      -0.00014923
Si       5.75938473       1.35750000      31.03753893        4       0.00000000      -0.00000784       0.00002463
Si       5.75938473       0.00000000      32.95733384        4      -0.00000000       0.00001150      -0.00014923
Si       3.83958982       4.07250000      32.95733384        4       0.00000000      -0.00001150      -0.00014923
Si       0.00000000       2.71500000      31.03753893        4       0.00000000       0.00000784       0.00002463
Si       3.83958982       4.07250000      36.79692366        3      -0.00000000      -0.00125575      -0.00509857
Si       0.00000000       2.71500000      34.87712875        3      -0.00000000       0.00070815      -0.00018851
Si       5.75938473       1.35750000      34.87712875        3       0.00000000      -0.00070815      -0.00018851
Si       5.75938473       0.00000000      36.79692366        3       0.00000000       0.00125575      -0.00509857
Si       1.91979491       1.35750000      34.87712875        3       0.00000000      -0.00070815      -0.00018851
Si       1.91979491       0.00000000      36.79692366        3       0.00000000       0.00125575      -0.00509857
Si       0.00000000       4.07250000      36.79692366        3       0.00000000      -0.00125575      -0.00509857
Si       3.83958982       2.71500000      34.87712875        3       0.00000000       0.00070815      -0.00018851
Si       0.00000000       4.07250000      40.63651349        2      -0.00000000      -0.01591802      -0.03033708
Si       3.83958982       2.71500000      38.71671857        2      -0.00000000       0.01199832      -0.01266924
Si       1.91979491       1.35750000      38.71671857        2      -0.00000000      -0.01199832      -0.01266924
Si       1.91979491       0.00000000      40.63651349        2       0.00000000       0.01591802      -0.03033708
Si       5.75938473       1.35750000      38.71671857        2       0.00000000      -0.01199832      -0.01266924
Si       5.75938473       0.00000000      40.63651349        2       0.00000000       0.01591802      -0.03033708
Si       3.83958982       4.07250000      40.63651349        2      -0.00000000      -0.01591802      -0.03033708
Si       0.00000000       2.71500000      38.71671857        2       0.00000000       0.01199832      -0.01266924
Si       3.83958982       4.07250000      44.47610331        1      -0.00000000       0.29184200       0.02076463
Si       0.00000000       2.71500000      42.55630840        1       0.00000000       0.01540587       0.14817580
Si       5.75938473       1.35750000      42.55630840        1      -0.00000000      -0.01540587       0.14817580
Si       5.75938473       0.00000000      44.47610331        1       0.00000000      -0.29184200       0.02076463
Si       1.91979491       1.35750000      42.55630840        1       0.00000000      -0.01540587       0.14817580
Si       1.91979491       0.00000000      44.47610331        1       0.00000000      -0.29184200       0.02076463
Si       0.00000000       4.07250000      44.47610331        1       0.00000000       0.29184200       0.02076463
Si       3.83958982       2.71500000      42.55630840        1      -0.00000000       0.01540587       0.14817580
80
Lattice="7.679179643685906 0.0 0.0 3.8395898218429525 6.650364651656329 0.0 0.0 0.0 44.99886064572193" Properties=species:S:1:pos:R:3:tags:I:1:forces:R:3 config_type=slab miller=111 energy=-425.7229090415296 label_model=mpa-0 structure_key=1ba60c9fd4fac3b31211159b20e699b81ee40b85ab7216ae6b67e1f1429705a9 pbc="T T F"
Si       0.00000000       0.00000000       8.78375299       10      -0.00000000       0.00000000      -0.11446712
Si       3.83958982       2.21678822       8.00000000       10       0.00000000       0.00000000      -0.12283146
Si       1.91979491       3.32518233       8.78375299       10      -0.00000000       0.00000000      -0.11446712
Si       5.75938473       5.54197054       8.00000000       10       0.00000000       0.00000000      -0.12283146
Si       3.83958982       0.00000000       8.78375299       10       0.00000000      -0.00000000      -0.11446712
Si       7.67917964       2.21678822       8.00000000       10       0.00000000      -0.00000000      -0.12283146
Si       5.75938473       3.32518233       8.78375299       10      -0.00000000       0.00000000      -0.11446712
Si       9.59897455       5.54197054       8.00000000       10       0.00000000      -0.00000000      -0.12283146
Si       7.67917964       4.43357643      11.91876495        9       0.00000000      -0.00000000       0.01485070
Si       7.67917964       0.00000000      11.13501196        9       0.00000000      -0.00000000       0.06524359
Si       5.75938473       1.10839411      11.91876495        9       0.00000000       0.00000000       0.01485070
Si       1.91979491       3.32518233      11.13501196        9       0.00000000      -0.00000000       0.06524359
Si       3.83958982       4.43357643      11.91876495        9      -0.00000000      -0.00000000       0.01485070
Si       3.83958982       0.00000000      11.13501196        9      -0.00000000       0.00000000       0.06524359
Si       1.91979491       1.10839411      11.91876495        9      -0.00000000      -0.00000000       0.01485070
Si       5.75938473       3.32518233      11.13501196        9      -0.00000000      -0.00000000       0.06524359
Si       3.83958982       2.21678822      15.05377691        8      -0.00000000       0.00000000       0.01073067
Si       7.67917964       4.43357643      14.27002392        8       0.00000000       0.00000000      -0.00402519
Si       5.75938473       5.54197054      15.05377691        8      -0.00000000       0.00000000       0.01073067
Si       5.75938473       1.10839411      14.27002392        8       0.00000000      -0.00000000      -0.00402519
Si       7.67917964       2.21678822      15.05377691        8      -0.00000000      -0.00000000       0.01073067
Si       3.83958982       4.43357643      14.27002392        8      -0.00000000      -0.00000000      -0.00402519
Si       9.59897455       5.54197054      15.05377691        8       0.00000000      -0.00000000       0.01073067
Si       1.91979491       1.10839411      14.27002392        8      -0.00000000       0.00000000      -0.00402519
Si       0.00000000       0.00000000      18.18878888        7      -0.00000000      -0.00000000       0.00089268
Si       3.83958982       2.21678822      17.40503589        7       0.00000000      -0.00000000       0.00194183
Si       1.91979491       3.32518233      18.18878888        7      -0.00000000       0.00000000       0.00089268
Si       5.75938473       5.54197054      17.40503589        7      -0.00000000      -0.00000000       0.00194183
Si       3.83958982       0.00000000      18.18878888        7       0.00000000      -0.00000000       0.00089268
Si       7.67917964       2.21678822      17.40503589        7      -0.00000000      -0.00000000       0.00194183
Si       5.75938473       3.32518233      18.18878888        7      -0.00000000       0.00000000       0.00089268
Si       9.59897455       5.54197054      17.40503589        7      -0.00000000       0.00000000       0.00194183
Si       7.67917964       4.43357643      21.32380084        6      -0.00000000       0.00000000       0.00000065
Si       7.67917964       0.00000000      20.54004785        6       0.00000000      -0.00000000       0.00005178
Si       5.75938473       1.10839411      21.32380084        6      -0.00000000       0.00000000       0.00000065
Si       1.91979491       3.32518233      20.54004785        6       0.00000000      -0.00000000       0.00005178
Si       3.83958982       4.43357643      21.32380084        6       0.00000000      -0.00000000       0.00000065
Si       3.83958982       0.00000000      20.54004785        6       0.00000000       0.00000000       0.00005178
Si       1.91979491       1.10839411      21.32380084        6      -0.00000000      -0.00000000       0.00000065
Si       5.75938473       3.32518233      20.54004785        6       0.00000000       0.00000000       0.00005178
Si       3.83958982       2.21678822      24.45881280        5      -0.00000000      -0.00000000      -0.00005178
Si       7.67917964       4.43357643      23.67505981        5       0.00000000      -0.00000000      -0.00000065
Si       5.75938473       5.54197054      24.45881280        5      -0.00000000       0.00000000      -0.00005178
Si       5.75938473       1.10839411      23.67505981        5       0.00000000      -0.00000000      -0.00000065
Si       7.67917964       2.21678822      24.45881280        5      -0.00000000      -0.00000000      -0.00005178
Si       3.83958982       4.43357643      23.67505981        5      -0.00000000       0.00000000      -0.00000065
Si       9.59897455       5.54197054      24.45881280        5       0.00000000      -0.00000000      -0.00005178
Si       1.91979491       1.10839411      23.67505981        5       0.00000000       0.00000000      -0.00000065
Si       0.00000000       0.00000000      27.59382476        4       0.00000000      -0.00000000      -0.00194183
Si       3.83958982       2.21678822      26.81007177        4       0.00000000       0.00000000      -0.00089268
Si       1.91979491       3.32518233      27.59382476        4      -0.00000000       0.00000000      -0.00194183
Si       5.75938473       5.54197054      26.81007177        4      -0.00000000       0.00000000      -0.00089268
Si       3.83958982       0.00000000      27.59382476        4       0.00000000       0.00000000      -0.00194183
Si       7.67917964       2.21678822      26.81007177        4       0.00000000      -0.00000000      -0.00089268
Si       5.75938473       3.32518233      27.59382476        4      -0.00000000      -0.00000000      -0.00194183
Si       9.59897455       5.54197054      26.81007177        4      -0.00000000      -0.00000000      -0.00089268
Si       7.67917964       4.43357643      30.72883672        3       0.00000000       0.00000000       0.00402519
Si       7.67917964       0.00000000      29.94508373        3       0.00000000      -0.00000000      -0.01073067
Si       5.75938473       1.10839411      30.72883672        3      -0.00000000       0.00000000       0.00402519
Si       1.91979491       3.32518233      29.94508373        3       0.00000000      -0.00000000      -0.01073067
Si       3.83958982       4.43357643      30.72883672        3       0.00000000      -0.00000000       0.00402519
Si       3.83958982       0.00000000      29.94508373        3       0.00000000       0.00000000      -0.01073067
Si       1.91979491       1.10839411      30.72883672        3      -0.00000000      -0.00000000       0.00402519
Si       5.75938473       3.32518233      29.94508373        3      -0.00000000       0.00000000      -0.01073067
Si       3.83958982       2.21678822      33.86384868        2      -0.00000000      -0.00000000      -0.06524359
Si       7.67917964       4.43357643      33.08009569        2       0.00000000       0.00000000      -0.01485070
Si       5.75938473       5.54197054      33.86384868        2      -0.00000000      -0.00000000      -0.06524359
Si       5.75938473       1.10839411      33.08009569        2      -0.00000000       0.00000000      -0.01485070
Si       7.67917964       2.21678822      33.86384868        2      -0.00000000       0.00000000      -0.06524359
Si       3.83958982       4.43357643      33.08009569        2       0.00000000       0.00000000      -0.01485070
Si       9.59897455       5.54197054      33.86384868        2      -0.00000000       0.00000000      -0.06524359
Si       1.91979491       1.10839411      33.08009569        2       0.00000000       0.00000000      -0.01485070
Si       0.00000000       0.00000000      36.99886065        1      -0.00000000      -0.00000000       0.12283146
Si       3.83958982       2.21678822      36.21510766        1       0.00000000      -0.00000000       0.11446712
Si       1.91979491       3.32518233      36.99886065        1      -0.00000000      -0.00000000       0.12283146
Si       5.75938473       5.54197054      36.21510766        1       0.00000000      -0.00000000       0.11446712
Si       3.83958982       0.00000000      36.99886065        1      -0.00000000       0.00000000       0.12283146
Si       7.67917964       2.21678822      36.21510766        1       0.00000000      -0.00000000       0.11446712
Si       5.75938473       3.32518233      36.99886065        1      -0.00000000       0.00000000       0.12283146
Si       9.59897455       5.54197054      36.21510766        1       0.00000000      -0.00000000       0.11446712
80
Lattice="5.43 0.0 0.0 0.0 5.43 0.0 0.0 0.0 72.9425" Properties=species:S:1:pos:R:3:tags:I:1:forces:R:3 config_type=slab miller=100 energy=-425.7987250629119 label_model=mpa-0 structure_key=7dd4a55546e2b35722acb9e04a6a6224bc99dc9877acd2ec900578181e518adc pbc="T T F"
Si       1.35750000       1.35750000      11.35750000       10      -0.00000000      -0.00000000       0.13851801
Si       2.71500000       2.71500000      12.71500000       10       0.00000000       0.00000000      -0.05691596
Si       4.07250000       4.07250000      11.35750000       10      -0.00000000      -0.00000000       0.13851801
Si       0.00000000       0.00000000      12.71500000       10       0.00000000       0.00000000      -0.05691596
Si       1.35750000       4.07250000      14.07250000       10       0.00000000      -0.00000000       0.00466394
Si       2.71500000       0.00000000      10.00000000       10      -0.00000000       0.00000000      -0.30844850
Si       4.07250000       1.35750000      14.07250000       10       0.00000000      -0.00000000       0.00466394
Si       0.00000000       2.71500000      10.00000000       10       0.00000000      -0.00000000      -0.30844850
Si       1.35750000       1.35750000      16.78750000        9      -0.00000000      -0.00000000      -0.00417746
Si       2.71500000       2.71500000      18.14500000        9       0.00000000       0.00000000       0.00062312
Si       4.07250000       4.07250000      16.78750000        9      -0.00000000      -0.00000000      -0.00417746
Si       0.00000000       0.00000000      18.14500000        9       0.00000000      -0.00000000       0.00062312
Si       1.35750000       4.07250000      19.50250000        9      -0.00000000      -0.00000000      -0.00027168
Si       2.71500000       0.00000000      15.43000000        9       0.00000000      -0.00000000       0.05578913
Si       4.07250000       1.35750000      19.50250000        9      -0.00000000      -0.00000000      -0.00027168
Si       0.00000000       2.71500000      15.43000000        9      -0.00000000       0.00000000       0.05578913
Si       1.35750000       1.35750000      22.21750000        8      -0.00000000      -0.00000000      -0.00018536
Si       2.71500000       2.71500000      23.57500000        8       0.00000000       0.00000000       0.00001324
Si       4.07250000       4.07250000      22.21750000        8       0.00000000      -0.00000000      -0.00018536
Si       0.00000000       0.00000000      23.57500000        8      -0.00000000       0.00000000       0.00001324
Si       1.35750000       4.07250000      24.93250000        8      -0.00000000      -0.00000000       0.00006052
Si       2.71500000       0.00000000      20.86000000        8       0.00000000      -0.00000000      -0.00011309
Si       4.07250000       1.35750000      24.93250000        8      -0.00000000      -0.00000000       0.00006052
Si       0.00000000       2.71500000      20.86000000        8      -0.00000000       0.00000000      -0.00011309
Si       1.35750000       1.35750000      27.64750000        7      -0.00000000      -0.00000000      -0.00000127
Si       2.71500000       2.71500000      29.00500000        7       0.00000000       0.00000000      -0.00000032
Si       4.07250000       4.07250000      27.64750000        7      -0.00000000       0.00000000      -0.00000127
Si       0.00000000       0.00000000      29.00500000        7      -0.00000000       0.00000000      -0.00000032
Si       1.35750000       4.07250000      30.36250000        7      -0.00000000      -0.00000000      -0.00000001
Si       2.71500000       0.00000000      26.29000000        7       0.00000000       0.00000000      -0.00000247
Si       4.07250000       1.35750000      30.36250000        7      -0.00000000      -0.00000000      -0.00000001
Si       0.00000000       2.71500000      26.29000000        7       0.00000000       0.00000000      -0.00000247
Si       1.35750000       1.35750000      33.07750000        6      -0.00000000      -0.00000000      -0.00000000
Si       2.71500000       2.71500000      34.43500000        6       0.00000000       0.00000000      -0.00000000
Si       4.07250000       4.07250000      33.07750000        6      -0.00000000      -0.00000000      -0.00000000
Si       0.00000000       0.00000000      34.43500000        6      -0.00000000      -0.00000000      -0.00000000
Si       1.35750000       4.07250000      35.79250000        6      -0.00000000      -0.00000000       0.00000000
Si       2.71500000       0.00000000      31.72000000        6       0.00000000      -0.00000000       0.00000000
Si       4.07250000       1.35750000      35.79250000        6      -0.00000000      -0.00000000       0.00000000
Si       0.00000000       2.71500000      31.72000000        6      -0.00000000       0.00000000       0.00000000
Si       1.35750000       1.35750000      38.50750000        5      -0.00000000      -0.00000000      -0.00000000
Si       2.71500000       2.71500000      39.86500000        5       0.00000000       0.00000000      -0.00000000
Si       4.07250000       4.07250000      38.50750000        5      -0.00000000      -0.00000000      -0.00000000
Si       0.00000000       0.00000000      39.86500000        5      -0.00000000      -0.00000000      -0.00000000
Si       1.35750000       4.07250000      41.22250000        5      -0.00000000      -0.00000000       0.00000000
Si       2.71500000       0.00000000      37.15000000        5       0.00000000      -0.00000000       0.00000000
Si       4.07250000       1.35750000      41.22250000        5      -0.00000000      -0.00000000       0.00000000
Si       0.00000000       2.71500000      37.15000000        5      -0.00000000       0.00000000       0.00000000
Si       1.35750000       1.35750000      43.93750000        4       0.00000000       0.00000000       0.00000032
Si       2.71500000       2.71500000      45.29500000        4       0.00000000       0.00000000       0.00000127
Si       4.07250000       4.07250000      43.93750000        4      -0.00000000       0.00000000       0.00000032
Si       0.00000000       0.00000000      45.29500000        4      -0.00000000       0.00000000       0.00000127
Si       1.35750000       4.07250000      46.65250000        4      -0.00000000      -0.00000000       0.00000247
Si       2.71500000       0.00000000      42.58000000        4       0.00000000      -0.00000000       0.00000001
Si       4.07250000       1.35750000      46.65250000        4      -0.00000000      -0.00000000       0.00000247
Si       0.00000000       2.71500000      42.58000000        4      -0.00000000       0.00000000       0.00000001
Si       1.35750000       1.35750000      49.36750000        3       0.00000000      -0.00000000      -0.00001324
Si       2.71500000       2.71500000      50.72500000        3       0.00000000       0.00000000       0.00018536
Si       4.07250000       4.07250000      49.36750000        3      -0.00000000      -0.00000000      -0.00001324
Si       0.00000000       0.00000000      50.72500000        3       0.00000000       0.00000000       0.00018536
Si       1.35750000       4.07250000      52.08250000        3      -0.00000000      -0.00000000       0.00011309
Si       2.71500000       0.00000000      48.01000000        3       0.00000000      -0.00000000      -0.00006052
Si       4.07250000       1.35750000      52.08250000        3      -0.00000000      -0.00000000       0.00011309
Si       0.00000000       2.71500000      48.01000000        3       0.00000000       0.00000000      -0.00006052
Si       1.35750000       1.35750000      54.79750000        2      -0.00000000      -0.00000000      -0.00062312
Si       2.71500000       2.71500000      56.15500000        2       0.00000000       0.00000000       0.00417746
Si       4.07250000       4.07250000      54.79750000        2      -0.00000000      -0.00000000      -0.00062312
Si       0.00000000       0.00000000      56.15500000        2      -0.00000000       0.00000000       0.00417746
Si       1.35750000       4.07250000      57.51250000        2      -0.00000000      -0.00000000      -0.05578913
Si       2.71500000       0.00000000      53.44000000        2       0.00000000      -0.00000000       0.00027168
Si       4.07250000       1.35750000      57.51250000        2      -0.00000000      -0.00000000      -0.05578913
Si       0.00000000       2.71500000      53.44000000        2      -0.00000000       0.00000000       0.00027168
Si       1.35750000       1.35750000      60.22750000        1       0.00000000      -0.00000000       0.05691596
Si       2.71500000       2.71500000      61.58500000        1      -0.00000000       0.00000000      -0.13851801
Si       4.07250000       4.07250000      60.22750000        1      -0.00000000      -0.00000000       0.05691596
Si       0.00000000       0.00000000      61.58500000        1      -0.00000000       0.00000000      -0.13851801
Si       1.35750000       4.07250000      62.94250000        1      -0.00000000       0.00000000       0.30844850
Si       2.71500000       0.00000000      58.87000000        1       0.00000000      -0.00000000      -0.00466394
Si       4.07250000       1.35750000      62.94250000        1       0.00000000      -0.00000000       0.30844850
Si       0.00000000       2.71500000      58.87000000        1       0.00000000       0.00000000      -0.00466394
80
Lattice="7.679179643685906 0.0 0.0 0.0 5.43 0.0 0.0 0.0 56.476103307508055" Properties=species:S:1:pos:R:3:tags:I:1:forces:R:3 config_type=slab miller=110 energy=-426.004496649306 label_model=mpa-0 structure_key=31e21855312ce5ec8064842eb446cb1346a94013e48206b802680d1b0c972dc1 pbc="T T F"
Si       0.00000000       4.07250000      11.91979491       10      -0.00000000      -0.01540587      -0.14817580
Si       3.83958982       2.71500000      10.00000000       10       0.00000000      -0.29184200      -0.02076463
Si       1.91979491       1.35750000      10.00000000       10      -0.00000000       0.29184200      -0.02076463
Si       1.91979491       0.00000000      11.91979491       10       0.00000000       0.01540587      -0.14817580
Si       5.75938473       1.35750000      10.00000000       10      -0.00000000       0.29184200      -0.02076463
Si       5.75938473       0.00000000      11.91979491       10      -0.00000000       0.01540587      -0.14817580
Si       3.83958982       4.07250000      11.91979491       10      -0.00000000      -0.01540587      -0.14817580
Si       0.00000000       2.71500000      10.00000000       10       0.00000000      -0.29184200      -0.02076463
Si       3.83958982       4.07250000      15.75938473        9       0.00000000      -0.01199832       0.01266924
Si       0.00000000       2.71500000      13.83958982        9       0.00000000       0.01591802       0.03033708
Si       5.75938473       1.35750000      13.83958982        9       0.00000000      -0.01591802       0.03033708
Si       5.75938473       0.00000000      15.75938473        9      -0.00000000       0.01199832       0.01266924
Si       1.91979491       1.35750000      13.83958982        9      -0.00000000      -0.01591802       0.03033708
Si       1.91979491       0.00000000      15.75938473        9       0.00000000       0.01199832       0.01266924
Si       0.00000000       4.07250000      15.75938473        9      -0.00000000      -0.01199832       0.01266924
Si       3.83958982       2.71500000      13.83958982        9       0.00000000       0.01591802       0.03033708
Si       0.00000000       4.07250000      19.59897455        8      -0.00000000      -0.00070815       0.00018851
Si       3.83958982       2.71500000      17.67917964        8      -0.00000000       0.00125575       0.00509857
Si       1.91979491       1.35750000      17.67917964        8      -0.00000000      -0.00125575       0.00509857
Si       1.91979491       0.00000000      19.59897455        8       0.00000000       0.00070815       0.00018851
Si       5.75938473       1.35750000      17.67917964        8       0.00000000      -0.00125575       0.00509857
Si       5.75938473       0.00000000      19.59897455        8      -0.00000000       0.00070815       0.00018851
Si       3.83958982       4.07250000      19.59897455        8       0.00000000      -0.00070815       0.00018851
Si       0.00000000       2.71500000      17.67917964        8       0.00000000       0.00125575       0.00509857
Si       3.83958982       4.07250000      23.43856438        7      -0.00000000      -0.00000784      -0.00002463
Si       0.00000000       2.71500000      21.51876947        7       0.00000000       0.00001150       0.00014923
Si       5.75938473       1.35750000      21.51876947        7      -0.00000000      -0.00001150       0.00014923
Si       5.75938473       0.00000000      23.43856438        7       0.00000000       0.00000784      -0.00002463
Si       1.91979491       1.35750000      21.51876947        7       0.00000000      -0.00001150       0.00014923
Si       1.91979491       0.00000000      23.43856438        7      -0.00000000       0.00000784      -0.00002463
Si       7.67917964       4.07250000      23.43856438        7       0.00000000      -0.00000784      -0.00002463
Si       3.83958982       2.71500000      21.51876947        7      -0.00000000       0.00001150       0.00014923
Si       0.00000000       4.07250000      27.27815420        6      -0.00000000      -0.00000000      -0.00000002
Si       3.83958982       2.71500000      25.35835929        6       0.00000000       0.00000059      -0.00000260
Si       1.91979491       1.35750000      25.35835929        6       0.00000000      -0.00000059      -0.00000260
Si       1.91979491       0.00000000      27.27815420        6      -0.00000000       0.00000000      -0.00000002
Si       5.75938473       1.35750000      25.35835929        6      -0.00000000      -0.00000059      -0.00000260
Si       5.75938473       0.00000000      27.27815420        6       0.00000000       0.00000000      -0.00000002
Si       3.83958982       4.07250000      27.27815420        6       0.00000000      -0.00000000      -0.00000002
Si       0.00000000       2.71500000      25.35835929        6       0.00000000       0.00000059      -0.00000260
Si       3.83958982       4.07250000      31.11774402        5      -0.00000000      -0.00000059       0.00000260
Si       0.00000000       2.71500000      29.19794911        5      -0.00000000       0.00000000       0.00000002
Si       5.75938473       1.35750000      29.19794911        5      -0.00000000      -0.00000000       0.00000002
Si       5.75938473       0.00000000      31.11774402        5      -0.00000000       0.00000059       0.00000260
Si       1.91979491       1.35750000      29.19794911        5      -0.00000000      -0.00000000       0.00000002
Si       1.91979491       0.00000000      31.11774402        5      -0.00000000       0.00000059       0.00000260
Si       0.00000000       4.07250000      31.11774402        5       0.00000000      -0.00000059       0.00000260
Si       3.83958982       2.71500000      29.19794911        5       0.00000000       0.00000000       0.00000002
Si       0.00000000       4.07250000      34.95733384        4      -0.00000000      -0.00001150      -0.00014923
Si       3.83958982       2.71500000      33.03753893        4      -0.00000000       0.00000784       0.00002463
Si       1.91979491       1.35750000      33.03753893        4      -0.00000000      -0.00000784       0.00002463
Si       1.91979491       0.00000000      34.95733384        4       0.00000000       0.00001150      -0.00014923
Si       5.75938473       1.35750000      33.03753893        4       0.00000000      -0.00000784       0.00002463
Si       5.75938473       0.00000000      34.95733384        4      -0.00000000       0.00001150      -0.00014923
Si       3.83958982       4.07250000      34.95733384        4       0.00000000      -0.00001150      -0.00014923
Si       0.00000000       2.71500000      33.03753893        4       0.00000000       0.00000784       0.00002463
Si       3.83958982       4.07250000      38.79692366        3      -0.00000000      -0.00125575      -0.00509857
Si       0.00000000       2.71500000      36.87712875        3      -0.00000000       0.00070815      -0.00018851
Si       5.75938473       1.35750000      36.87712875        3      -0.00000000      -0.00070815      -0.00018851
Si       5.75938473       0.00000000      38.79692366        3       0.00000000       0.00125575      -0.00509857
Si       1.91979491       1.35750000      36.87712875        3       0.00000000      -0.00070815      -0.00018851
Si       1.91979491       0.00000000      38.79692366        3       0.00000000       0.00125575      -0.00509857
Si       0.00000000       4.07250000      38.79692366        3       0.00000000      -0.00125575      -0.00509857
Si       3.83958982       2.71500000      36.87712875        3       0.00000000       0.00070815      -0.00018851
Si       0.00000000       4.07250000      42.63651349        2      -0.00000000      -0.01591802      -0.03033708
Si       3.83958982       2.71500000      40.71671857        2      -0.00000000       0.01199832      -0.01266924
Si       1.91979491       1.35750000      40.71671857        2      -0.00000000      -0.01199832      -0.01266924
Si       1.91979491       0.00000000      42.63651349        2       0.00000000       0.01591802      -0.03033708
Si       5.75938473       1.35750000      40.71671857        2       0.00000000      -0.01199832      -0.01266924
Si       5.75938473       0.00000000      42.63651349        2       0.00000000       0.01591802      -0.03033708
Si       3.83958982       4.07250000      42.63651349        2      -0.00000000      -0.01591802      -0.03033708
Si       0.00000000       2.71500000      40.71671857        2       0.00000000       0.01199832      -0.01266924
Si       3.83958982       4.07250000      46.47610331        1      -0.00000000       0.29184200       0.02076463
Si       0.00000000       2.71500000      44.55630840        1       0.00000000       0.01540587       0.14817580
Si       5.75938473       1.35750000      44.55630840        1      -0.00000000      -0.01540587       0.14817580
Si       5.75938473       0.00000000      46.47610331        1       0.00000000      -0.29184200       0.02076463
Si       1.91979491       1.35750000      44.55630840        1       0.00000000      -0.01540587       0.14817580
Si       1.91979491       0.00000000      46.47610331        1       0.00000000      -0.29184200       0.02076463
Si       0.00000000       4.07250000      46.47610331        1       0.00000000       0.29184200       0.02076463
Si       3.83958982       2.71500000      44.55630840        1      -0.00000000       0.01540587       0.14817580
80
Lattice="7.679179643685906 0.0 0.0 3.8395898218429525 6.650364651656329 0.0 0.0 0.0 48.99886064572193" Properties=species:S:1:pos:R:3:tags:I:1:forces:R:3 config_type=slab miller=111 energy=-425.7229090415296 label_model=mpa-0 structure_key=c2eaa314571f4934cb88b35562613625a233c8d5c58010e3117d0cac6fbfcc6d pbc="T T F"
Si       0.00000000       0.00000000      10.78375299       10      -0.00000000       0.00000000      -0.11446712
Si       3.83958982       2.21678822      10.00000000       10       0.00000000       0.00000000      -0.12283146
Si       1.91979491       3.32518233      10.78375299       10      -0.00000000       0.00000000      -0.11446712
Si       5.75938473       5.54197054      10.00000000       10       0.00000000      -0.00000000      -0.12283146
Si       3.83958982       0.00000000      10.78375299       10       0.00000000      -0.00000000      -0.11446712
Si       7.67917964       2.21678822      10.00000000       10       0.00000000      -0.00000000      -0.12283146
Si       5.75938473       3.32518233      10.78375299       10      -0.00000000       0.00000000      -0.11446712
Si       9.59897455       5.54197054      10.00000000       10      -0.00000000      -0.00000000      -0.12283146
Si       7.67917964       4.43357643      13.91876495        9      -0.00000000      -0.00000000       0.01485070
Si       7.67917964       0.00000000      13.13501196        9       0.00000000      -0.00000000       0.06524359
Si       5.75938473       1.10839411      13.91876495        9       0.00000000       0.00000000       0.01485070
Si       1.91979491       3.32518233      13.13501196        9       0.00000000       0.00000000       0.06524359
Si       3.83958982       4.43357643      13.91876495        9      -0.00000000      -0.00000000       0.01485070
Si       3.83958982       0.00000000      13.13501196        9      -0.00000000       0.00000000       0.06524359
Si       1.91979491       1.10839411      13.91876495        9      -0.00000000      -0.00000000       0.01485070
Si       5.75938473       3.32518233      13.13501196        9       0.00000000      -0.00000000       0.06524359
Si       3.83958982       2.21678822      17.05377691        8      -0.00000000       0.00000000       0.01073067
Si       7.67917964       4.43357643      16.27002392        8       0.00000000      -0.00000000      -0.00402519
Si       5.75938473       5.54197054      17.05377691        8      -0.00000000       0.00000000       0.01073067
Si       5.75938473       1.10839411      16.27002392        8      -0.00000000      -0.00000000      -0.00402519
Si       7.67917964       2.21678822      17.05377691        8      -0.00000000      -0.00000000       0.01073067
Si       3.83958982       4.43357643      16.27002392        8      -0.00000000       0.00000000      -0.00402519
Si       9.59897455       5.54197054      17.05377691        8       0.00000000      -0.00000000       0.01073067
Si       1.91979491       1.10839411      16.27002392        8       0.00000000       0.00000000      -0.00402519
Si       0.00000000       0.00000000      20.18878888        7      -0.00000000      -0.00000000       0.00089268
Si       3.83958982       2.21678822      19.40503589        7       0.00000000      -0.00000000       0.00194183
Si       1.91979491       3.32518233      20.18878888        7      -0.00000000       0.00000000       0.00089268
Si       5.75938473       5.54197054      19.40503589        7      -0.00000000      -0.00000000       0.00194183
Si       3.83958982       0.00000000      20.18878888        7       0.00000000       0.00000000       0.00089268
Si       7.67917964       2.21678822      19.40503589        7      -0.00000000      -0.00000000       0.00194183
Si       5.75938473       3.32518233      20.18878888        7       0.00000000       0.00000000       0.00089268
Si       9.59897455       5.54197054      19.40503589        7       0.00000000       0.00000000       0.00194183
Si       7.67917964       4.43357643      23.32380084        6      -0.00000000      -0.00000000       0.00000065
Si       7.67917964       0.00000000      22.54004785        6       0.00000000       0.00000000       0.00005178
Si       5.75938473       1.10839411      23.32380084        6      -0.00000000       0.00000000       0.00000065
Si       1.91979491       3.32518233      22.54004785        6       0.00000000      -0.00000000       0.00005178
Si       3.83958982       4.43357643      23.32380084        6       0.00000000      -0.00000000       0.00000065
Si       3.83958982       0.00000000      22.54004785        6       0.00000000       0.00000000       0.00005178
Si       1.91979491       1.10839411      23.32380084        6      -0.00000000      -0.00000000       0.00000065
Si       5.75938473       3.32518233      22.54004785        6       0.00000000      -0.00000000       0.00005178
Si       3.83958982       2.21678822      26.45881280        5      -0.00000000       0.00000000      -0.00005178
Si       7.67917964       4.43357643      25.67505981        5       0.00000000      -0.00000000      -0.00000065
Si       5.75938473       5.54197054      26.45881280        5      -0.00000000       0.00000000      -0.00005178
Si       5.75938473       1.10839411      25.67505981        5       0.00000000      -0.00000000      -0.00000065
Si       7.67917964       2.21678822      26.45881280        5      -0.00000000      -0.00000000      -0.00005178
Si       3.83958982       4.43357643      25.67505981        5      -0.00000000      -0.00000000      -0.00000065
Si       9.59897455       5.54197054      26.45881280        5       0.00000000       0.00000000      -0.00005178
Si       1.91979491       1.10839411      25.67505981        5       0.00000000       0.00000000      -0.00000065
Si       0.00000000       0.00000000      29.59382476        4       0.00000000      -0.00000000      -0.00194183
Si       3.83958982       2.21678822      28.81007177        4       0.00000000      -0.00000000      -0.00089268
Si       1.91979491       3.32518233      29.59382476        4      -0.00000000       0.00000000      -0.00194183
Si       5.75938473       5.54197054      28.81007177        4      -0.00000000       0.00000000      -0.00089268
Si       3.83958982       0.00000000      29.59382476        4       0.00000000       0.00000000      -0.00194183
Si       7.67917964       2.21678822      28.81007177        4       0.00000000      -0.00000000      -0.00089268
Si       5.75938473       3.32518233      29.59382476        4      -0.00000000      -0.00000000      -0.00194183
Si       9.59897455       5.54197054      28.81007177        4      -0.00000000      -0.00000000      -0.00089268
Si       7.67917964       4.43357643      32.72883672        3       0.00000000       0.00000000       0.00402519
Si       7.67917964       0.00000000      31.94508373        3       0.00000000      -0.00000000      -0.01073067
Si       5.75938473       1.10839411      32.72883672        3      -0.00000000       0.00000000       0.00402519
Si       1.91979491       3.32518233      31.94508373        3      -0.00000000      -0.00000000      -0.01073067
Si       3.83958982       4.43357643      32.72883672        3       0.00000000      -0.00000000       0.00402519
Si       3.83958982       0.00000000      31.94508373        3      -0.00000000       0.00000000      -0.01073067
Si       1.91979491       1.10839411      32.72883672        3      -0.00000000      -0.00000000       0.00402519
Si       5.75938473       3.32518233      31.94508373        3      -0.00000000       0.00000000      -0.01073067
Si       3.83958982       2.21678822      35.86384868        2      -0.00000000      -0.00000000      -0.06524359
Si       7.67917964       4.43357643      35.08009569        2      -0.00000000       0.00000000      -0.01485070
Si       5.75938473       5.54197054      35.86384868        2      -0.00000000      -0.00000000      -0.06524359
Si       5.75938473       1.10839411      35.08009569        2      -0.00000000       0.00000000      -0.01485070
Si       7.67917964       2.21678822      35.86384868        2      -0.00000000      -0.00000000      -0.06524359
Si       3.83958982       4.43357643      35.08009569        2       0.00000000       0.00000000      -0.01485070
Si       9.59897455       5.54197054      35.86384868        2      -0.00000000       0.00000000      -0.06524359
Si       1.91979491       1.10839411      35.08009569        2       0.00000000       0.00000000      -0.01485070
Si       0.00000000       0.00000000      38.99886065        1      -0.00000000      -0.00000000       0.12283146
Si       3.83958982       2.21678822      38.21510766        1       0.00000000       0.00000000       0.11446712
Si       1.91979491       3.32518233      38.99886065        1      -0.00000000      -0.00000000       0.12283146
Si       5.75938473       5.54197054      38.21510766        1       0.00000000      -0.00000000       0.11446712
Si       3.83958982       0.00000000      38.99886065        1      -0.00000000       0.00000000       0.12283146
Si       7.67917964       2.21678822      38.21510766        1       0.00000000       0.00000000       0.11446712
Si       5.75938473       3.32518233      38.99886065        1      -0.00000000       0.00000000       0.12283146
Si       9.59897455       5.54197054      38.21510766        1       0.00000000      -0.00000000       0.11446712
80
Lattice="5.43 0.0 0.0 0.0 5.43 0.0 0.0 0.0 76.9425" Properties=species:S:1:pos:R:3:tags:I:1:forces:R:3 config_type=slab miller=100 energy=-425.79872506291184 label_model=mpa-0 structure_key=b009d6f2c054ea1bed5b32391e848a63689052b5288bceb3f793bc314f5d0172 pbc="T T F"
Si       1.35750000       1.35750000      13.35750000       10       0.00000000       0.00000000       0.13851801
Si       2.71500000       2.71500000      14.71500000       10       0.00000000       0.00000000      -0.05691596
Si       4.07250000       4.07250000      13.35750000       10      -0.00000000      -0.00000000       0.13851801
Si       0.00000000       0.00000000      14.71500000       10      -0.00000000      -0.00000000      -0.05691596
Si       1.35750000       4.07250000      16.07250000       10      -0.00000000      -0.00000000       0.00466394
Si       2.71500000       0.00000000      12.00000000       10      -0.00000000      -0.00000000      -0.30844850
Si       4.07250000       1.35750000      16.07250000       10      -0.00000000      -0.00000000       0.00466394
Si       0.00000000       2.71500000      12.00000000       10       0.00000000       0.00000000      -0.30844850
Si       1.35750000       1.35750000      18.78750000        9      -0.00000000      -0.00000000      -0.00417746
Si       2.71500000       2.71500000      20.14500000        9       0.00000000       0.00000000       0.00062312
Si       4.07250000       4.07250000      18.78750000        9      -0.00000000       0.00000000      -0.00417746
Si       0.00000000       0.00000000      20.14500000        9      -0.00000000      -0.00000000       0.00062312
Si       1.35750000       4.07250000      21.50250000        9      -0.00000000      -0.00000000      -0.00027168
Si       2.71500000       0.00000000      17.43000000        9       0.00000000      -0.00000000       0.05578913
Si       4.07250000       1.35750000      21.50250000        9      -0.00000000      -0.00000000      -0.00027168
Si       0.00000000       2.71500000      17.43000000        9       0.00000000       0.00000000       0.05578913
Si       1.35750000       1.35750000      24.21750000        8      -0.00000000      -0.00000000      -0.00018536
Si       2.71500000       2.71500000      25.57500000        8       0.00000000       0.00000000       0.00001324
Si       4.07250000       4.07250000      24.21750000        8       0.00000000      -0.00000000      -0.00018536
Si       0.00000000       0.00000000      25.57500000        8      -0.00000000      -0.00000000       0.00001324
Si       1.35750000       4.07250000      26.93250000        8      -0.00000000      -0.00000000       0.00006052
Si       2.71500000       0.00000000      22.86000000        8       0.00000000      -0.00000000      -0.00011309
Si       4.07250000       1.35750000      26.93250000        8      -0.00000000      -0.00000000       0.00006052
Si       0.00000000       2.71500000      22.86000000        8       0.00000000       0.00000000      -0.00011309
Si       1.35750000       1.35750000      29.64750000        7      -0.00000000      -0.00000000      -0.00000127
Si       2.71500000       2.71500000      31.00500000        7       0.00000000       0.00000000      -0.00000032
Si       4.07250000       4.07250000      29.64750000        7      -0.00000000      -0.00000000      -0.00000127
Si       0.00000000       0.00000000      31.00500000        7       0.00000000       0.00000000      -0.00000032
Si       1.35750000       4.07250000      32.36250000        7      -0.00000000      -0.00000000      -0.00000001
Si       2.71500000       0.00000000      28.29000000        7       0.00000000       0.00000000      -0.00000247
Si       4.07250000       1.35750000      32.36250000        7      -0.00000000      -0.00000000      -0.00000001
Si       0.00000000       2.71500000      28.29000000        7       0.00000000       0.00000000      -0.00000247
Si       1.35750000       1.35750000      35.07750000        6      -0.00000000      -0.00000000      -0.00000000
Si       2.71500000       2.71500000      36.43500000        6       0.00000000       0.00000000      -0.00000000
Si       4.07250000       4.07250000      35.07750000        6      -0.00000000      -0.00000000      -0.00000000
Si       0.00000000       0.00000000      36.43500000        6       0.00000000      -0.00000000      -0.00000000
Si       1.35750000       4.07250000      37.79250000        6      -0.00000000      -0.00000000       0.00000000
Si       2.71500000       0.00000000      33.72000000        6       0.00000000      -0.00000000       0.00000000
Si       4.07250000       1.35750000      37.79250000        6      -0.00000000      -0.00000000       0.00000000
Si       0.00000000       2.71500000      33.72000000        6      -0.00000000       0.00000000       0.00000000
Si       1.35750000       1.35750000      40.50750000        5      -0.00000000      -0.00000000      -0.00000000
Si       2.71500000       2.71500000      41.86500000        5       0.00000000       0.00000000      -0.00000000
Si       4.07250000       4.07250000      40.50750000        5      -0.00000000      -0.00000000      -0.00000000
Si       0.00000000       0.00000000      41.86500000        5      -0.00000000      -0.00000000      -0.00000000
Si       1.35750000       4.07250000      43.22250000        5      -0.00000000      -0.00000000       0.00000000
Si       2.71500000       0.00000000      39.15000000        5       0.00000000      -0.00000000       0.00000000
Si       4.07250000       1.35750000      43.22250000        5      -0.00000000      -0.00000000       0.00000000
Si       0.00000000       2.71500000      39.15000000        5      -0.00000000       0.00000000       0.00000000
Si       1.35750000       1.35750000      45.93750000        4       0.00000000       0.00000000       0.00000032
Si       2.71500000       2.71500000      47.29500000        4       0.00000000       0.00000000       0.00000127
Si       4.07250000       4.07250000      45.93750000        4      -0.00000000      -0.00000000       0.00000032
Si       0.00000000       0.00000000      47.29500000        4      -0.00000000      -0.00000000       0.00000127
Si       1.35750000       4.07250000      48.65250000        4      -0.00000000      -0.00000000       0.00000247
Si       2.71500000       0.00000000      44.58000000        4       0.00000000      -0.00000000       0.00000001
Si       4.07250000       1.35750000      48.65250000        4      -0.00000000      -0.00000000       0.00000247
Si       0.00000000       2.71500000      44.58000000        4      -0.00000000       0.00000000       0.00000001
Si       1.35750000       1.35750000      51.36750000        3       0.00000000       0.00000000      -0.00001324
Si       2.71500000       2.71500000      52.72500000        3       0.00000000       0.00000000       0.00018536
Si       4.07250000       4.07250000      51.36750000        3      -0.00000000      -0.00000000      -0.00001324
Si       0.00000000       0.00000000      52.72500000        3       0.00000000       0.00000000       0.00018536
Si       1.35750000       4.07250000      54.08250000        3      -0.00000000      -0.00000000       0.00011309
Si       2.71500000       0.00000000      50.01000000        3       0.00000000      -0.00000000      -0.00006052
Si       4.07250000       1.35750000      54.08250000        3      -0.00000000      -0.00000000       0.00011309
Si       0.00000000       2.71500000      50.01000000        3       0.00000000      -0.00000000      -0.00006052
Si       1.35750000       1.35750000      56.79750000        2       0.00000000       0.00000000      -0.00062312
Si       2.71500000       2.71500000      58.15500000        2       0.00000000       0.00000000       0.00417746
Si       4.07250000       4.07250000      56.79750000        2      -0.00000000      -0.00000000      -0.00062312
Si       0.00000000       0.00000000      58.15500000        2      -0.00000000      -0.00000000       0.00417746
Si       1.35750000       4.07250000      59.51250000        2      -0.00000000      -0.00000000      -0.05578913
Si       2.71500000       0.00000000      55.44000000        2       0.00000000      -0.00000000       0.00027168
Si       4.07250000       1.35750000      59.51250000        2      -0.00000000      -0.00000000      -0.05578913
Si       0.00000000       2.71500000      55.44000000        2      -0.00000000       0.00000000       0.00027168
Si       1.35750000       1.35750000      62.22750000        1      -0.00000000      -0.00000000       0.05691596
Si       2.71500000       2.71500000      63.58500000        1       0.00000000       0.00000000      -0.13851801
Si       4.07250000       4.07250000      62.22750000        1      -0.00000000      -0.00000000       0.05691596
Si       0.00000000       0.00000000      63.58500000        1       0.00000000       0.00000000      -0.13851801
Si       1.35750000       4.07250000      64.94250000        1      -0.00000000      -0.00000000       0.30844850
Si       2.71500000       0.00000000      60.87000000        1       0.00000000      -0.00000000      -0.00466394
Si       4.07250000       1.35750000      64.94250000        1      -0.00000000       0.00000000       0.30844850
Si       0.00000000       2.71500000      60.87000000        1       0.00000000       0.00000000      -0.00466394
80
Lattice="7.679179643685906 0.0 0.0 0.0 5.43 0.0 0.0 0.0 60.476103307508055" Properties=species:S:1:pos:R:3:tags:I:1:forces:R:3 config_type=slab miller=110 energy=-426.0044966493059 label_model=mpa-0 structure_key=e8f24e79694cc64079a819635d72b094357b14fba79aae1468881b6422d06bee pbc="T T F"
Si       0.00000000       4.07250000      13.91979491       10      -0.00000000      -0.01540587      -0.14817580
Si       3.83958982       2.71500000      12.00000000       10      -0.00000000      -0.29184200      -0.02076463
Si       1.91979491       1.35750000      12.00000000       10       0.00000000       0.29184200      -0.02076463
Si       1.91979491       0.00000000      13.91979491       10       0.00000000       0.01540587      -0.14817580
Si       5.75938473       1.35750000      12.00000000       10       0.00000000       0.29184200      -0.02076463
Si       5.75938473       0.00000000      13.91979491       10       0.00000000       0.01540587      -0.14817580
Si       3.83958982       4.07250000      13.91979491       10      -0.00000000      -0.01540587      -0.14817580
Si       0.00000000       2.71500000      12.00000000       10       0.00000000      -0.29184200      -0.02076463
Si       3.83958982       4.07250000      17.75938473        9      -0.00000000      -0.01199832       0.01266924
Si       0.00000000       2.71500000      15.83958982        9      -0.00000000       0.01591802       0.03033708
Si       5.75938473       1.35750000      15.83958982        9       0.00000000      -0.01591802       0.03033708
Si       5.75938473       0.00000000      17.75938473        9      -0.00000000       0.01199832       0.01266924
Si       1.91979491       1.35750000      15.83958982        9       0.00000000      -0.01591802       0.03033708
Si       1.91979491       0.00000000      17.75938473        9       0.00000000       0.01199832       0.01266924
Si       0.00000000       4.07250000      17.75938473        9       0.00000000      -0.01199832       0.01266924
Si       3.83958982       2.71500000      15.83958982        9       0.00000000       0.01591802       0.03033708
Si       0.00000000       4.07250000      21.59897455        8      -0.00000000      -0.00070815       0.00018851
Si       3.83958982       2.71500000      19.67917964        8       0.00000000       0.00125575       0.00509857
Si       1.91979491       1.35750000      19.67917964        8      -0.00000000      -0.00125575       0.00509857
Si       1.91979491       0.00000000      21.59897455        8       0.00000000       0.00070815       0.00018851
Si       5.75938473       1.35750000      19.67917964        8       0.00000000      -0.00125575       0.00509857
Si       5.75938473       0.00000000      21.59897455        8       0.00000000       0.00070815       0.00018851
Si       3.83958982       4.07250000      21.59897455        8       0.00000000      -0.00070815       0.00018851
Si       0.00000000       2.71500000      19.67917964        8       0.00000000       0.00125575       0.00509857
Si       3.83958982       4.07250000      25.43856438        7      -0.00000000      -0.00000784      -0.00002463
Si       0.00000000       2.71500000      23.51876947        7       0.00000000       0.00001150       0.00014923
Si       5.75938473       1.35750000      23.51876947        7      -0.00000000      -0.00001150       0.00014923
Si       5.75938473       0.00000000      25.43856438        7       0.00000000       0.00000784      -0.00002463
Si       1.91979491       1.35750000      23.51876947        7       0.00000000      -0.00001150       0.00014923
Si       1.91979491       0.00000000      25.43856438        7      -0.00000000       0.00000784      -0.00002463
Si       7.67917964       4.07250000      25.43856438        7       0.00000000      -0.00000784      -0.00002463
Si       3.83958982       2.71500000      23.51876947        7      -0.00000000       0.00001150       0.00014923
Si       0.00000000       4.07250000      29.27815420        6      -0.00000000      -0.00000000      -0.00000002
Si       3.83958982       2.71500000      27.35835929        6       0.00000000       0.00000059      -0.00000260
Si       1.91979491       1.35750000      27.35835929        6       0.00000000      -0.00000059      -0.00000260
Si       1.91979491       0.00000000      29.27815420        6      -0.00000000       0.00000000      -0.00000002
Si       5.75938473       1.35750000      27.35835929        6      -0.00000000      -0.00000059      -0.00000260
Si       5.75938473       0.00000000      29.27815420        6       0.00000000       0.00000000      -0.00000002
Si       3.83958982       4.07250000      29.27815420        6       0.00000000      -0.00000000      -0.00000002
Si       0.00000000       2.71500000      27.35835929        6       0.00000000       0.00000059      -0.00000260
Si       3.83958982       4.07250000      33.11774402        5      -0.00000000      -0.00000059       0.00000260
Si       0.00000000       2.71500000      31.19794911        5      -0.00000000       0.00000000       0.00000002
Si       5.75938473       1.35750000      31.19794911        5      -0.00000000      -0.00000000       0.00000002
Si       5.75938473       0.00000000      33.11774402        5      -0.00000000       0.00000059       0.00000260
Si       1.91979491       1.35750000      31.19794911        5      -0.00000000      -0.00000000       0.00000002
Si       1.91979491       0.00000000      33.11774402        5      -0.00000000       0.00000059       0.00000260
Si       0.00000000       4.07250000      33.11774402        5       0.00000000      -0.00000059       0.00000260
Si       3.83958982       2.71500000      31.19794911        5       0.00000000       0.00000000       0.00000002
Si       0.00000000       4.07250000      36.95733384        4      -0.00000000      -0.00001150      -0.00014923
Si       3.83958982       2.71500000      35.03753893        4      -0.00000000       0.00000784       0.00002463
Si       1.91979491       1.35750000      35.03753893        4      -0.00000000      -0.00000784       0.00002463
Si       1.91979491       0.00000000      36.95733384        4       0.00000000       0.00001150      -0.00014923
Si       5.75938473       1.35750000      35.03753893        4       0.00000000      -0.00000784       0.00002463
Si       5.75938473       0.00000000      36.95733384        4      -0.00000000       0.00001150      -0.00014923
Si       3.83958982       4.07250000      36.95733384        4       0.00000000      -0.00001150      -0.00014923
Si       0.00000000       2.71500000      35.03753893        4       0.00000000       0.00000784       0.00002463
Si       3.83958982       4.07250000      40.79692366        3      -0.00000000      -0.00125575      -0.00509857
Si       0.00000000       2.71500000      38.87712875        3      -0.00000000       0.00070815      -0.00018851
Si       5.75938473       1.35750000      38.87712875        3      -0.00000000      -0.00070815      -0.00018851
Si       5.75938473       0.00000000      40.79692366        3       0.00000000       0.00125575      -0.00509857
Si       1.91979491       1.35750000      38.87712875        3       0.00000000      -0.00070815      -0.00018851
Si       1.91979491       0.00000000      40.79692366        3       0.00000000       0.00125575      -0.00509857
Si       0.00000000       4.07250000      40.79692366        3       0.00000000      -0.00125575      -0.00509857
Si       3.83958982       2.71500000      38.87712875        3       0.00000000       0.00070815      -0.00018851
Si       0.00000000       4.07250000      44.63651349        2      -0.00000000      -0.01591802      -0.03033708
Si       3.83958982       2.71500000      42.71671857        2      -0.00000000       0.01199832      -0.01266924
Si       1.91979491       1.35750000      42.71671857        2      -0.00000000      -0.01199832      -0.01266924
Si       1.91979491       0.00000000      44.63651349        2       0.00000000       0.01591802      -0.03033708
Si       5.75938473       1.35750000      42.71671857        2       0.00000000      -0.01199832      -0.01266924
Si       5.75938473       0.00000000      44.63651349        2       0.00000000       0.01591802      -0.03033708
Si       3.83958982       4.07250000      44.63651349        2      -0.00000000      -0.01591802      -0.03033708
Si       0.00000000       2.71500000      42.71671857        2       0.00000000       0.01199832      -0.01266924
Si       3.83958982       4.07250000      48.47610331        1      -0.00000000       0.29184200       0.02076463
Si       0.00000000       2.71500000      46.55630840        1       0.00000000       0.01540587       0.14817580
Si       5.75938473       1.35750000      46.55630840        1      -0.00000000      -0.01540587       0.14817580
Si       5.75938473       0.00000000      48.47610331        1       0.00000000      -0.29184200       0.02076463
Si       1.91979491       1.35750000      46.55630840        1       0.00000000      -0.01540587       0.14817580
Si       1.91979491       0.00000000      48.47610331        1       0.00000000      -0.29184200       0.02076463
Si       0.00000000       4.07250000      48.47610331        1       0.00000000       0.29184200       0.02076463
Si       3.83958982       2.71500000      46.55630840        1      -0.00000000       0.01540587       0.14817580
80
Lattice="7.679179643685906 0.0 0.0 3.8395898218429525 6.650364651656329 0.0 0.0 0.0 52.99886064572193" Properties=species:S:1:pos:R:3:tags:I:1:forces:R:3 config_type=slab miller=111 energy=-425.7229090415296 label_model=mpa-0 structure_key=dc1c8459631d73baf5ffede9c29013b6cc50e0b9ba32ae40627a02ebe19114fd pbc="T T F"
Si       0.00000000       0.00000000      12.78375299       10      -0.00000000       0.00000000      -0.11446712
Si       3.83958982       2.21678822      12.00000000       10       0.00000000       0.00000000      -0.12283146
Si       1.91979491       3.32518233      12.78375299       10      -0.00000000       0.00000000      -0.11446712
Si       5.75938473       5.54197054      12.00000000       10       0.00000000      -0.00000000      -0.12283146
Si       3.83958982       0.00000000      12.78375299       10       0.00000000      -0.00000000      -0.11446712
Si       7.67917964       2.21678822      12.00000000       10      -0.00000000       0.00000000      -0.12283146
Si       5.75938473       3.32518233      12.78375299       10      -0.00000000       0.00000000      -0.11446712
Si       9.59897455       5.54197054      12.00000000       10      -0.00000000      -0.00000000      -0.12283146
Si       7.67917964       4.43357643      15.91876495        9      -0.00000000      -0.00000000       0.01485070
Si       7.67917964       0.00000000      15.13501196        9       0.00000000      -0.00000000       0.06524359
Si       5.75938473       1.10839411      15.91876495        9       0.00000000       0.00000000       0.01485070
Si       1.91979491       3.32518233      15.13501196        9       0.00000000       0.00000000       0.06524359
Si       3.83958982       4.43357643      15.91876495        9      -0.00000000      -0.00000000       0.01485070
Si       3.83958982       0.00000000      15.13501196        9      -0.00000000       0.00000000       0.06524359
Si       1.91979491       1.10839411      15.91876495        9      -0.00000000      -0.00000000       0.01485070
Si       5.75938473       3.32518233      15.13501196        9       0.00000000      -0.00000000       0.06524359
Si       3.83958982       2.21678822      19.05377691        8      -0.00000000       0.00000000       0.01073067
Si       7.67917964       4.43357643      18.27002392        8       0.00000000      -0.00000000      -0.00402519
Si       5.75938473       5.54197054      19.05377691        8      -0.00000000       0.00000000       0.01073067
Si       5.75938473       1.10839411      18.27002392        8      -0.00000000      -0.00000000      -0.00402519
Si       7.67917964       2.21678822      19.05377691        8      -0.00000000      -0.00000000       0.01073067
Si       3.83958982       4.43357643      18.27002392        8      -0.00000000       0.00000000      -0.00402519
Si       9.59897455       5.54197054      19.05377691        8       0.00000000      -0.00000000       0.01073067
Si       1.91979491       1.10839411      18.27002392        8       0.00000000       0.00000000      -0.00402519
Si       0.00000000       0.00000000      22.18878888        7      -0.00000000      -0.00000000       0.00089268
Si       3.83958982       2.21678822      21.40503589        7       0.00000000      -0.00000000       0.00194183
Si       1.91979491       3.32518233      22.18878888        7      -0.00000000       0.00000000       0.00089268
Si       5.75938473       5.54197054      21.40503589        7      -0.00000000      -0.00000000       0.00194183
Si       3.83958982       0.00000000      22.18878888        7       0.00000000       0.00000000       0.00089268
Si       7.67917964       2.21678822      21.40503589        7      -0.00000000      -0.00000000       0.00194183
Si       5.75938473       3.32518233      22.18878888        7       0.00000000       0.00000000       0.00089268
Si       9.59897455       5.54197054      21.40503589        7       0.00000000       0.00000000       0.00194183
Si       7.67917964       4.43357643      25.32380084        6      -0.00000000      -0.00000000       0.00000065
Si       7.67917964       0.00000000      24.54004785        6       0.00000000       0.00000000       0.00005178
Si       5.75938473       1.10839411      25.32380084        6      -0.00000000       0.00000000       0.00000065
Si       1.91979491       3.32518233      24.54004785        6       0.00000000      -0.00000000       0.00005178
Si       3.83958982       4.43357643      25.32380084        6       0.00000000      -0.00000000       0.00000065
Si       3.83958982       0.00000000      24.54004785        6       0.00000000       0.00000000       0.00005178
Si       1.91979491       1.10839411      25.32380084        6      -0.00000000      -0.00000000       0.00000065
Si       5.75938473       3.32518233      24.54004785        6       0.00000000      -0.00000000       0.00005178
Si       3.83958982       2.21678822      28.45881280        5      -0.00000000       0.00000000      -0.00005178
Si       7.67917964       4.43357643      27.67505981        5       0.00000000      -0.00000000      -0.00000065
Si       5.75938473       5.54197054      28.45881280        5      -0.00000000       0.00000000      -0.00005178
Si       5.75938473       1.10839411      27.67505981        5       0.00000000      -0.00000000      -0.00000065
Si       7.67917964       2.21678822      28.45881280        5      -0.00000000      -0.00000000      -0.00005178
Si       3.83958982       4.43357643      27.67505981        5      -0.00000000      -0.00000000      -0.00000065
Si       9.59897455       5.54197054      28.45881280        5       0.00000000       0.00000000      -0.00005178
Si       1.91979491       1.10839411      27.67505981        5       0.00000000       0.00000000      -0.00000065
Si       0.00000000       0.00000000      31.59382476        4       0.00000000      -0.00000000      -0.00194183
Si       3.83958982       2.21678822      30.81007177        4       0.00000000      -0.00000000      -0.00089268
Si       1.91979491       3.32518233      31.59382476        4      -0.00000000       0.00000000      -0.00194183
Si       5.75938473       5.54197054      30.81007177        4      -0.00000000       0.00000000      -0.00089268
Si       3.83958982       0.00000000      31.59382476        4       0.00000000       0.00000000      -0.00194183
Si       7.67917964       2.21678822      30.81007177        4       0.00000000      -0.00000000      -0.00089268
Si       5.75938473       3.32518233      31.59382476        4      -0.00000000      -0.00000000      -0.00194183
Si       9.59897455       5.54197054      30.81007177        4      -0.00000000      -0.00000000      -0.00089268
Si       7.67917964       4.43357643      34.72883672        3       0.00000000       0.00000000       0.00402519
Si       7.67917964       0.00000000      33.94508373        3       0.00000000      -0.00000000      -0.01073067
Si       5.75938473       1.10839411      34.72883672        3      -0.00000000       0.00000000       0.00402519
Si       1.91979491       3.32518233      33.94508373        3      -0.00000000      -0.00000000      -0.01073067
Si       3.83958982       4.43357643      34.72883672        3       0.00000000      -0.00000000       0.00402519
Si       3.83958982       0.00000000      33.94508373        3      -0.00000000       0.00000000      -0.01073067
Si       1.91979491       1.10839411      34.72883672        3      -0.00000000      -0.00000000       0.00402519
Si       5.75938473       3.32518233      33.94508373        3      -0.00000000       0.00000000      -0.01073067
Si       3.83958982       2.21678822      37.86384868        2      -0.00000000      -0.00000000      -0.06524359
Si       7.67917964       4.43357643      37.08009569        2       0.00000000      -0.00000000      -0.01485070
Si       5.75938473       5.54197054      37.86384868        2      -0.00000000      -0.00000000      -0.06524359
Si       5.75938473       1.10839411      37.08009569        2      -0.00000000       0.00000000      -0.01485070
Si       7.67917964       2.21678822      37.86384868        2      -0.00000000      -0.00000000      -0.06524359
Si       3.83958982       4.43357643      37.08009569        2       0.00000000       0.00000000      -0.01485070
Si       9.59897455       5.54197054      37.86384868        2      -0.00000000       0.00000000      -0.06524359
Si       1.91979491       1.10839411      37.08009569        2       0.00000000       0.00000000      -0.01485070
Si       0.00000000       0.00000000      40.99886065        1      -0.00000000      -0.00000000       0.12283146
Si       3.83958982       2.21678822      40.21510766        1       0.00000000      -0.00000000       0.11446712
Si       1.91979491       3.32518233      40.99886065        1      -0.00000000      -0.00000000       0.12283146
Si       5.75938473       5.54197054      40.21510766        1       0.00000000      -0.00000000       0.11446712
Si       3.83958982       0.00000000      40.99886065        1      -0.00000000       0.00000000       0.12283146
Si       7.67917964       2.21678822      40.21510766        1       0.00000000       0.00000000       0.11446712
Si       5.75938473       3.32518233      40.99886065        1      -0.00000000       0.00000000       0.12283146
Si       9.59897455       5.54197054      40.21510766        1       0.00000000      -0.00000000       0.11446712
96
Lattice="5.43 0.0 0.0 0.0 5.43 0.0 0.0 0.0 75.8025" Properties=species:S:1:pos:R:3:tags:I:1:forces:R:3 config_type=slab miller=100 energy=-512.3968420799155 label_model=mpa-0 structure_key=b907c628c878d5a5427c80349cbf31736890c9c3e10595acd3b73d0cc7c057b3 pbc="T T F"
Si       1.35750000       1.35750000       7.35750000       12      -0.00000000       0.00000000       0.13851801
Si       2.71500000       2.71500000       8.71500000       12       0.00000000       0.00000000      -0.05691596
Si       4.07250000       4.07250000       7.35750000       12      -0.00000000       0.00000000       0.13851801
Si       0.00000000       0.00000000       8.71500000       12       0.00000000       0.00000000      -0.05691596
Si       1.35750000       4.07250000      10.07250000       12      -0.00000000       0.00000000       0.00466394
Si       2.71500000       0.00000000       6.00000000       12       0.00000000      -0.00000000      -0.30844850
Si       4.07250000       1.35750000      10.07250000       12      -0.00000000       0.00000000       0.00466394
Si       0.00000000       2.71500000       6.00000000       12      -0.00000000      -0.00000000      -0.30844850
Si       1.35750000       1.35750000      12.78750000       11      -0.00000000      -0.00000000      -0.00417746
Si       2.71500000       2.71500000      14.14500000       11       0.00000000       0.00000000       0.00062312
Si       4.07250000       4.07250000      12.78750000       11      -0.00000000      -0.00000000      -0.00417746
Si       0.00000000       0.00000000      14.14500000       11      -0.00000000       0.00000000       0.00062312
Si       1.35750000       4.07250000      15.50250000       11      -0.00000000      -0.00000000      -0.00027168
Si       2.71500000       0.00000000      11.43000000       11       0.00000000      -0.00000000       0.05578913
Si       4.07250000       1.35750000      15.50250000       11       0.00000000      -0.00000000      -0.00027168
Si       0.00000000       2.71500000      11.43000000       11       0.00000000       0.00000000       0.05578913
Si       1.35750000       1.35750000      18.21750000       10      -0.00000000      -0.00000000      -0.00018536
Si       2.71500000       2.71500000      19.57500000       10       0.00000000       0.00000000       0.00001324
Si       4.07250000       4.07250000      18.21750000       10      -0.00000000       0.00000000      -0.00018536
Si       0.00000000       0.00000000      19.57500000       10      -0.00000000      -0.00000000       0.00001324
Si       1.35750000       4.07250000      20.93250000       10      -0.00000000      -0.00000000       0.00006052
Si       2.71500000       0.00000000      16.86000000       10       0.00000000      -0.00000000      -0.00011309
Si       4.07250000       1.35750000      20.93250000       10      -0.00000000      -0.00000000       0.00006052
Si       0.00000000       2.71500000      16.86000000       10      -0.00000000       0.00000000      -0.00011309
Si       1.35750000       1.35750000      23.64750000        9      -0.00000000      -0.00000000      -0.00000127
Si       2.71500000       2.71500000      25.00500000        9       0.00000000       0.00000000      -0.00000032
Si       4.07250000       4.07250000      23.64750000        9      -0.00000000      -0.00000000      -0.00000127
Si       0.00000000       0.00000000      25.00500000        9      -0.00000000       0.00000000      -0.00000032
Si       1.35750000       4.07250000      26.36250000        9      -0.00000000       0.00000000      -0.00000001
Si       2.71500000       0.00000000      22.29000000        9       0.00000000      -0.00000000      -0.00000247
Si       4.07250000       1.35750000      26.36250000        9      -0.00000000      -0.00000000      -0.00000001
Si       0.00000000       2.71500000      22.29000000        9      -0.00000000       0.00000000      -0.00000247
Si       1.35750000       1.35750000      29.07750000        8      -0.00000000      -0.00000000      -0.00000000
Si       2.71500000       2.71500000      30.43500000        8       0.00000000       0.00000000       0.00000000
Si       4.07250000       4.07250000      29.07750000        8       0.00000000      -0.00000000      -0.00000000
Si       0.00000000       0.00000000      30.43500000        8      -0.00000000      -0.00000000       0.00000000
Si       1.35750000       4.07250000      31.79250000        8      -0.00000000      -0.00000000       0.00000000
Si       2.71500000       0.00000000      27.72000000        8       0.00000000      -0.00000000      -0.00000000
Si       4.07250000       1.35750000      31.79250000        8      -0.00000000      -0.00000000       0.00000000
Si       0.00000000       2.71500000      27.72000000        8      -0.00000000       0.00000000      -0.00000000
Si       1.35750000       1.35750000      34.50750000        7      -0.00000000       0.00000000      -0.00000000
Si       2.71500000       2.71500000      35.86500000        7       0.00000000       0.00000000       0.00000000
Si       4.07250000       4.07250000      34.50750000        7      -0.00000000      -0.00000000      -0.00000000
Si       0.00000000       0.00000000      35.86500000        7      -0.00000000       0.00000000       0.00000000
Si       1.35750000       4.07250000      37.22250000        7      -0.00000000      -0.00000000       0.00000000
Si       2.71500000       0.00000000      33.15000000        7       0.00000000      -0.00000000       0.00000000
Si       4.07250000       1.35750000      37.22250000        7      -0.00000000      -0.00000000       0.00000000
Si       0.00000000       2.71500000      33.15000000        7      -0.00000000       0.00000000       0.00000000
Si       1.35750000       1.35750000      39.93750000        6      -0.00000000      -0.00000000      -0.00000000
Si       2.71500000       2.71500000      41.29500000        6       0.00000000       0.00000000       0.00000000
Si       4.07250000       4.07250000      39.93750000        6      -0.00000000      -0.00000000      -0.00000000
Si       0.00000000       0.00000000      41.29500000        6       0.00000000      -0.00000000       0.00000000
Si       1.35750000       4.07250000      42.65250000        6      -0.00000000      -0.00000000       0.00000000
Si       2.71500000       0.00000000      38.58000000        6       0.00000000      -0.00000000      -0.00000000
Si       4.07250000       1.35750000      42.65250000        6      -0.00000000      -0.00000000       0.00000000
Si       0.00000000       2.71500000      38.58000000        6      -0.00000000       0.00000000      -0.00000000
Si       1.35750000       1.35750000      45.36750000        5      -0.00000000      -0.00000000      -0.00000000
Si       2.71500000       2.71500000      46.72500000        5       0.00000000       0.00000000       0.00000000
Si       4.07250000       4.07250000      45.36750000        5      -0.00000000      -0.00000000      -0.00000000
Si       0.00000000       0.00000000      46.72500000        5      -0.00000000       0.00000000       0.00000000
Si       1.35750000       4.07250000      48.08250000        5      -0.00000000      -0.00000000      -0.00000000
Si       2.71500000       0.00000000      44.01000000        5       0.00000000       0.00000000      -0.00000000
Si       4.07250000       1.35750000      48.08250000        5      -0.00000000      -0.00000000      -0.00000000
Si       0.00000000       2.71500000      44.01000000        5      -0.00000000       0.00000000      -0.00000000
Si       1.35750000       1.35750000      50.79750000        4       0.00000000       0.00000000       0.00000032
Si       2.71500000       2.71500000      52.15500000        4       0.00000000       0.00000000       0.00000127
Si       4.07250000       4.07250000      50.79750000        4      -0.00000000      -0.00000000       0.00000032
Si       0.00000000       0.00000000      52.15500000        4      -0.00000000       0.00000000       0.00000127
Si       1.35750000       4.07250000      53.51250000        4      -0.00000000      -0.00000000       0.00000247
Si       2.71500000       0.00000000      49.44000000        4       0.00000000      -0.00000000       0.00000001
Si       4.07250000       1.35750000      53.51250000        4      -0.00000000      -0.00000000       0.00000247
Si       0.00000000       2.71500000      49.44000000        4       0.00000000       0.00000000       0.00000001
Si       1.35750000       1.35750000      56.22750000        3       0.00000000      -0.00000000      -0.00001324
Si       2.71500000       2.71500000      57.58500000        3       0.00000000       0.00000000       0.00018536
Si       4.07250000       4.07250000      56.22750000        3      -0.00000000      -0.00000000      -0.00001324
Si       0.00000000       0.00000000      57.58500000        3      -0.00000000       0.00000000       0.00018536
Si       1.35750000       4.07250000      58.94250000        3      -0.00000000      -0.00000000       0.00011309
Si       2.71500000       0.00000000      54.87000000        3       0.00000000       0.00000000      -0.00006052
Si       4.07250000       1.35750000      58.94250000        3      -0.00000000      -0.00000000       0.00011309
Si       0.00000000       2.71500000      54.87000000        3      -0.00000000       0.00000000      -0.00006052
Si       1.35750000       1.35750000      61.65750000        2      -0.00000000      -0.00000000      -0.00062312
Si       2.71500000       2.71500000      63.01500000        2       0.00000000       0.00000000       0.00417746
Si       4.07250000       4.07250000      61.65750000        2      -0.00000000      -0.00000000      -0.00062312
Si       0.00000000       0.00000000      63.01500000        2       0.00000000      -0.00000000       0.00417746
Si       1.35750000       4.07250000      64.37250000        2      -0.00000000      -0.00000000      -0.05578913
Si       2.71500000       0.00000000      60.30000000        2       0.00000000      -0.00000000       0.00027168
Si       4.07250000       1.35750000      64.37250000        2      -0.00000000      -0.00000000      -0.05578913
Si       0.00000000       2.71500000      60.30000000        2       0.00000000       0.00000000       0.00027168
Si       1.35750000       1.35750000      67.08750000        1      -0.00000000      -0.00000000       0.05691596
Si       2.71500000       2.71500000      68.44500000        1       0.00000000       0.00000000      -0.13851801
Si       4.07250000       4.07250000      67.08750000        1       0.00000000       0.00000000       0.05691596
Si       0.00000000       0.00000000      68.44500000        1      -0.00000000       0.00000000      -0.13851801
Si       1.35750000       4.07250000      69.80250000        1      -0.00000000      -0.00000000       0.30844850
Si       2.71500000       0.00000000      65.73000000        1       0.00000000      -0.00000000      -0.00466394
Si       4.07250000       1.35750000      69.80250000        1       0.00000000      -0.00000000       0.30844850
Si       0.00000000       2.71500000      65.73000000        1       0.00000000       0.00000000      -0.00466394
96
Lattice="7.679179643685906 0.0 0.0 0.0 5.43 0.0 0.0 0.0 56.15528295119397" Properties=species:S:1:pos:R:3:tags:I:1:forces:R:3 config_type=slab miller=110 energy=-512.6026136663091 label_model=mpa-0 structure_key=978adcee8a09dc14cb9a00989a67e5cf7739e49d8e1376157660aa4bd1c48ecb pbc="T T F"
Si       7.67917964       4.07250000       7.91979491       12       0.00000000      -0.01540587      -0.14817580
Si       3.83958982       2.71500000       6.00000000       12      -0.00000000      -0.29184200      -0.02076463
Si       1.91979491       1.35750000       6.00000000       12      -0.00000000       0.29184200      -0.02076463
Si       1.91979491       0.00000000       7.91979491       12       0.00000000       0.01540587      -0.14817580
Si       5.75938473       1.35750000       6.00000000       12       0.00000000       0.29184200      -0.02076463
Si       5.75938473       0.00000000       7.91979491       12      -0.00000000       0.01540587      -0.14817580
Si       3.83958982       4.07250000       7.91979491       12      -0.00000000      -0.01540587      -0.14817580
Si       0.00000000       2.71500000       6.00000000       12      -0.00000000      -0.29184200      -0.02076463
Si       3.83958982       4.07250000      11.75938473       11       0.00000000      -0.01199832       0.01266924
Si       7.67917964       2.71500000       9.83958982       11      -0.00000000       0.01591802       0.03033708
Si       5.75938473       1.35750000       9.83958982       11      -0.00000000      -0.01591802       0.03033708
Si       5.75938473       0.00000000      11.75938473       11      -0.00000000       0.01199832       0.01266924
Si       1.91979491       1.35750000       9.83958982       11       0.00000000      -0.01591802       0.03033708
Si       1.91979491       0.00000000      11.75938473       11      -0.00000000       0.01199832       0.01266924
Si       7.67917964       4.07250000      11.75938473       11       0.00000000      -0.01199832       0.01266924
Si       3.83958982       2.71500000       9.83958982       11       0.00000000       0.01591802       0.03033708
Si       7.67917964       4.07250000      15.59897455       10       0.00000000      -0.00070815       0.00018851
Si       3.83958982       2.71500000      13.67917964       10       0.00000000       0.00125575       0.00509857
Si       1.91979491       1.35750000      13.67917964       10       0.00000000      -0.00125575       0.00509857
Si       1.91979491       0.00000000      15.59897455       10      -0.00000000       0.00070815       0.00018851
Si       5.75938473       1.35750000      13.67917964       10      -0.00000000      -0.00125575       0.00509857
Si       5.75938473       0.00000000      15.59897455       10       0.00000000       0.00070815       0.00018851
Si       3.83958982       4.07250000      15.59897455       10      -0.00000000      -0.00070815       0.00018851
Si       7.67917964       2.71500000      13.67917964       10      -0.00000000       0.00125575       0.00509857
Si       3.83958982       4.07250000      19.43856438        9      -0.00000000      -0.00000784      -0.00002463
Si       7.67917964       2.71500000      17.51876947        9      -0.00000000       0.00001150       0.00014923
Si       5.75938473       1.35750000      17.51876947        9       0.00000000      -0.00001150       0.00014923
Si       5.75938473       0.00000000      19.43856438        9       0.00000000       0.00000784      -0.00002463
Si       1.91979491       1.35750000      17.51876947        9      -0.00000000      -0.00001150       0.00014923
Si       1.91979491       0.00000000      19.43856438        9      -0.00000000       0.00000784      -0.00002463
Si       7.67917964       4.07250000      19.43856438        9       0.00000000      -0.00000784      -0.00002463
Si       3.83958982       2.71500000      17.51876947        9       0.00000000       0.00001150       0.00014923
Si       0.00000000       4.07250000      23.27815420        8      -0.00000000      -0.00000000      -0.00000002
Si       3.83958982       2.71500000      21.35835929        8       0.00000000       0.00000059      -0.00000260
Si       1.91979491       1.35750000      21.35835929        8      -0.00000000      -0.00000059      -0.00000260
Si       1.91979491       0.00000000      23.27815420        8      -0.00000000       0.00000000      -0.00000002
Si       5.75938473       1.35750000      21.35835929        8      -0.00000000      -0.00000059      -0.00000260
Si       5.75938473       0.00000000      23.27815420        8      -0.00000000       0.00000000      -0.00000002
Si       3.83958982       4.07250000      23.27815420        8       0.00000000      -0.00000000      -0.00000002
Si       7.67917964       2.71500000      21.35835929        8       0.00000000       0.00000059      -0.00000260
Si       3.83958982       4.07250000      27.11774402        7       0.00000000       0.00000000      -0.00000000
Si       0.00000000       2.71500000      25.19794911        7      -0.00000000       0.00000000      -0.00000000
Si       5.75938473       1.35750000      25.19794911        7      -0.00000000      -0.00000000      -0.00000000
Si       5.75938473       0.00000000      27.11774402        7       0.00000000       0.00000000      -0.00000000
Si       1.91979491       1.35750000      25.19794911        7      -0.00000000      -0.00000000      -0.00000000
Si       1.91979491       0.00000000      27.11774402        7      -0.00000000      -0.00000000       0.00000000
Si       7.67917964       4.07250000      27.11774402        7       0.00000000       0.00000000      -0.00000000
Si       3.83958982       2.71500000      25.19794911        7       0.00000000       0.00000000      -0.00000000
Si       0.00000000       4.07250000      30.95733384        6      -0.00000000      -0.00000000       0.00000000
Si       3.83958982       2.71500000      29.03753893        6       0.00000000      -0.00000000       0.00000000
Si       1.91979491       1.35750000      29.03753893        6       0.00000000       0.00000000       0.00000000
Si       1.91979491       0.00000000      30.95733384        6      -0.00000000       0.00000000       0.00000000
Si       5.75938473       1.35750000      29.03753893        6      -0.00000000      -0.00000000       0.00000000
Si       5.75938473       0.00000000      30.95733384        6       0.00000000       0.00000000       0.00000000
Si       3.83958982       4.07250000      30.95733384        6       0.00000000      -0.00000000       0.00000000
Si       7.67917964       2.71500000      29.03753893        6       0.00000000      -0.00000000      -0.00000000
Si       3.83958982       4.07250000      34.79692366        5      -0.00000000      -0.00000059       0.00000260
Si       0.00000000       2.71500000      32.87712875        5      -0.00000000       0.00000000       0.00000002
Si       5.75938473       1.35750000      32.87712875        5      -0.00000000      -0.00000000       0.00000002
Si       5.75938473       0.00000000      34.79692366        5       0.00000000       0.00000059       0.00000260
Si       1.91979491       1.35750000      32.87712875        5       0.00000000      -0.00000000       0.00000002
Si       1.91979491       0.00000000      34.79692366        5      -0.00000000       0.00000059       0.00000260
Si       7.67917964       4.07250000      34.79692366        5       0.00000000      -0.00000059       0.00000260
Si       3.83958982       2.71500000      32.87712875        5       0.00000000       0.00000000       0.00000002
Si       0.00000000       4.07250000      38.63651349        4      -0.00000000      -0.00001150      -0.00014923
Si       3.83958982       2.71500000      36.71671857        4      -0.00000000       0.00000784       0.00002463
Si       1.91979491       1.35750000      36.71671857        4      -0.00000000      -0.00000784       0.00002463
Si       1.91979491       0.00000000      38.63651349        4       0.00000000       0.00001150      -0.00014923
Si       5.75938473       1.35750000      36.71671857        4       0.00000000      -0.00000784       0.00002463
Si       5.75938473       0.00000000      38.63651349        4       0.00000000       0.00001150      -0.00014923
Si       3.83958982       4.07250000      38.63651349        4      -0.00000000      -0.00001150      -0.00014923
Si       7.67917964       2.71500000      36.71671857        4      -0.00000000       0.00000784       0.00002463
Si       3.83958982       4.07250000      42.47610331        3      -0.00000000      -0.00125575      -0.00509857
Si       0.00000000       2.71500000      40.55630840        3      -0.00000000       0.00070815      -0.00018851
Si       5.75938473       1.35750000      40.55630840        3      -0.00000000      -0.00070815      -0.00018851
Si       5.75938473       0.00000000      42.47610331        3       0.00000000       0.00125575      -0.00509857
Si       1.91979491       1.35750000      40.55630840        3      -0.00000000      -0.00070815      -0.00018851
Si       1.91979491       0.00000000      42.47610331        3       0.00000000       0.00125575      -0.00509857
Si       0.00000000       4.07250000      42.47610331        3      -0.00000000      -0.00125575      -0.00509857
Si       3.83958982       2.71500000      40.55630840        3      -0.00000000       0.00070815      -0.00018851
Si       0.00000000       4.07250000      46.31569313        2      -0.00000000      -0.01591802      -0.03033708
Si       3.83958982       2.71500000      44.39589822        2      -0.00000000       0.01199832      -0.01266924
Si       1.91979491       1.35750000      44.39589822        2      -0.00000000      -0.01199832      -0.01266924
Si       1.91979491       0.00000000      46.31569313        2       0.00000000       0.01591802      -0.03033708
Si       5.75938473       1.35750000      44.39589822        2       0.00000000      -0.01199832      -0.01266924
Si       5.75938473       0.00000000      46.31569313        2       0.00000000       0.01591802      -0.03033708
Si       3.83958982       4.07250000      46.31569313        2      -0.00000000      -0.01591802      -0.03033708
Si       7.67917964       2.71500000      44.39589822        2       0.00000000       0.01199832      -0.01266924
Si       3.83958982       4.07250000      50.15528295        1      -0.00000000       0.29184200       0.02076463
Si       7.67917964       2.71500000      48.23548804        1       0.00000000       0.01540587       0.14817580
Si       5.75938473       1.35750000      48.23548804        1      -0.00000000      -0.01540587       0.14817580
Si       5.75938473       0.00000000      50.15528295        1       0.00000000      -0.29184200       0.02076463
Si       1.91979491       1.35750000      48.23548804        1       0.00000000      -0.01540587       0.14817580
Si       1.91979491       0.00000000      50.15528295        1       0.00000000      -0.29184200       0.02076463
Si       7.67917964       4.07250000      50.15528295        1       0.00000000       0.29184200       0.02076463
Si       3.83958982       2.71500000      48.23548804        1      -0.00000000       0.01540587       0.14817580
96
Lattice="7.679179643685906 0.0 0.0 3.8395898218429525 6.650364651656329 0.0 0.0 0.0 47.26888456912127" Properties=species:S:1:pos:R:3:tags:I:1:forces:R:3 config_type=slab miller=111 energy=-512.3210260585329 label_model=mpa-0 structure_key=55addaca4b9c5ab2807c930d066d822826136e6456f85e557f560f76629c6d5a pbc="T T F"
Si       0.00000000       0.00000000       6.78375299       12      -0.00000000      -0.00000000      -0.11446712
Si       3.83958982       2.21678822       6.00000000       12       0.00000000      -0.00000000      -0.12283146
Si       1.91979491       3.32518233       6.78375299       12      -0.00000000       0.00000000      -0.11446712
Si       5.75938473       5.54197054       6.00000000       12      -0.00000000       0.00000000      -0.12283146
Si       3.83958982       0.00000000       6.78375299       12      -0.00000000      -0.00000000      -0.11446712
Si       7.67917964       2.21678822       6.00000000       12       0.00000000       0.00000000      -0.12283146
Si       5.75938473       3.32518233       6.78375299       12       0.00000000      -0.00000000      -0.11446712
Si       9.59897455       5.54197054       6.00000000       12       0.00000000       0.00000000      -0.12283146
Si       7.67917964       4.43357643       9.91876495       11      -0.00000000      -0.00000000       0.01485070
Si       0.00000000       0.00000000       9.13501196       11       0.00000000      -0.00000000       0.06524359
Si       5.75938473       1.10839411       9.91876495       11      -0.00000000      -0.00000000       0.01485070
Si       1.91979491       3.32518233       9.13501196       11       0.00000000      -0.00000000       0.06524359
Si       3.83958982       4.43357643       9.91876495       11      -0.00000000      -0.00000000       0.01485070
Si       7.67917964       6.65036465       9.13501196       11       0.00000000       0.00000000       0.06524359
Si       1.91979491       1.10839411       9.91876495       11      -0.00000000       0.00000000       0.01485070
Si       5.75938473       3.32518233       9.13501196       11       0.00000000       0.00000000       0.06524359
Si       3.83958982       2.21678822      13.05377691       10      -0.00000000       0.00000000       0.01073067
Si       7.67917964       4.43357643      12.27002392       10       0.00000000       0.00000000      -0.00402519
Si       5.75938473       5.54197054      13.05377691       10      -0.00000000      -0.00000000       0.01073067
Si       5.75938473       1.10839411      12.27002392       10       0.00000000       0.00000000      -0.00402519
Si       7.67917964       2.21678822      13.05377691       10       0.00000000      -0.00000000       0.01073067
Si       3.83958982       4.43357643      12.27002392       10       0.00000000       0.00000000      -0.00402519
Si       9.59897455       5.54197054      13.05377691       10       0.00000000      -0.00000000       0.01073067
Si       1.91979491       1.10839411      12.27002392       10       0.00000000       0.00000000      -0.00402519
Si       0.00000000       0.00000000      16.18878888        9      -0.00000000       0.00000000       0.00089268
Si       3.83958982       2.21678822      15.40503589        9       0.00000000       0.00000000       0.00194183
Si       1.91979491       3.32518233      16.18878888        9      -0.00000000       0.00000000       0.00089268
Si       5.75938473       5.54197054      15.40503589        9       0.00000000       0.00000000       0.00194183
Si       3.83958982       0.00000000      16.18878888        9       0.00000000      -0.00000000       0.00089268
Si       7.67917964       2.21678822      15.40503589        9      -0.00000000       0.00000000       0.00194183
Si       5.75938473       3.32518233      16.18878888        9       0.00000000      -0.00000000       0.00089268
Si       9.59897455       5.54197054      15.40503589        9       0.00000000       0.00000000       0.00194183
Si       7.67917964       4.43357643      19.32380084        8      -0.00000000       0.00000000       0.00000037
Si       0.00000000       0.00000000      18.54004785        8       0.00000000      -0.00000000       0.00005177
Si       5.75938473       1.10839411      19.32380084        8      -0.00000000       0.00000000       0.00000037
Si       1.91979491       3.32518233      18.54004785        8       0.00000000      -0.00000000       0.00005177
Si       3.83958982       4.43357643      19.32380084        8      -0.00000000      -0.00000000       0.00000037
Si       3.83958982       0.00000000      18.54004785        8       0.00000000       0.00000000       0.00005177
Si       1.91979491       1.10839411      19.32380084        8      -0.00000000       0.00000000       0.00000037
Si       5.75938473       3.32518233      18.54004785        8       0.00000000       0.00000000       0.00005177
Si       3.83958982       2.21678822      22.45881280        7      -0.00000000      -0.00000000      -0.00000000
Si       7.67917964       4.43357643      21.67505981        7       0.00000000       0.00000000      -0.00000028
Si       5.75938473       5.54197054      22.45881280        7      -0.00000000       0.00000000      -0.00000000
Si       5.75938473       1.10839411      21.67505981        7       0.00000000       0.00000000      -0.00000028
Si       7.67917964       2.21678822      22.45881280        7       0.00000000      -0.00000000      -0.00000000
Si       3.83958982       4.43357643      21.67505981        7       0.00000000       0.00000000      -0.00000028
Si       9.59897455       5.54197054      22.45881280        7       0.00000000      -0.00000000      -0.00000000
Si       1.91979491       1.10839411      21.67505981        7       0.00000000       0.00000000      -0.00000028
Si       0.00000000       0.00000000      25.59382476        6       0.00000000      -0.00000000       0.00000028
Si       3.83958982       2.21678822      24.81007177        6      -0.00000000      -0.00000000       0.00000000
Si       1.91979491       3.32518233      25.59382476        6       0.00000000       0.00000000       0.00000028
Si       5.75938473       5.54197054      24.81007177        6       0.00000000       0.00000000       0.00000000
Si       3.83958982       0.00000000      25.59382476        6       0.00000000       0.00000000       0.00000028
Si       7.67917964       2.21678822      24.81007177        6      -0.00000000       0.00000000       0.00000000
Si       5.75938473       3.32518233      25.59382476        6       0.00000000      -0.00000000       0.00000028
Si       9.59897455       5.54197054      24.81007177        6      -0.00000000      -0.00000000       0.00000000
Si       7.67917964       4.43357643      28.72883672        5       0.00000000       0.00000000      -0.00005177
Si       0.00000000       0.00000000      27.94508373        5       0.00000000      -0.00000000      -0.00000037
Si       5.75938473       1.10839411      28.72883672        5      -0.00000000       0.00000000      -0.00005177
Si       1.91979491       3.32518233      27.94508373        5       0.00000000      -0.00000000      -0.00000037
Si       3.83958982       4.43357643      28.72883672        5       0.00000000       0.00000000      -0.00005177
Si       7.67917964       6.65036465      27.94508373        5      -0.00000000       0.00000000      -0.00000037
Si       1.91979491       1.10839411      28.72883672        5       0.00000000       0.00000000      -0.00005177
Si       5.75938473       3.32518233      27.94508373        5      -0.00000000       0.00000000      -0.00000037
Si       3.83958982       2.21678822      31.86384868        4      -0.00000000      -0.00000000      -0.00194183
Si       7.67917964       4.43357643      31.08009569        4       0.00000000      -0.00000000      -0.00089268
Si       5.75938473       5.54197054      31.86384868        4      -0.00000000       0.00000000      -0.00194183
Si       5.75938473       1.10839411      31.08009569        4      -0.00000000       0.00000000      -0.00089268
Si       7.67917964       2.21678822      31.86384868        4      -0.00000000       0.00000000      -0.00194183
Si       3.83958982       4.43357643      31.08009569        4       0.00000000      -0.00000000      -0.00089268
Si       9.59897455       5.54197054      31.86384868        4      -0.00000000       0.00000000      -0.00194183
Si       1.91979491       1.10839411      31.08009569        4       0.00000000      -0.00000000      -0.00089268
Si       0.00000000       0.00000000      34.99886065        3      -0.00000000       0.00000000       0.00402519
Si       3.83958982       2.21678822      34.21510766        3       0.00000000       0.00000000      -0.01073067
Si       1.91979491       3.32518233      34.99886065        3       0.00000000      -0.00000000       0.00402519
Si       5.75938473       5.54197054      34.21510766        3       0.00000000      -0.00000000      -0.01073067
Si       3.83958982       0.00000000      34.99886065        3       0.00000000       0.00000000       0.00402519
Si       7.67917964       2.21678822      34.21510766        3      -0.00000000      -0.00000000      -0.01073067
Si       5.75938473       3.32518233      34.99886065        3      -0.00000000      -0.00000000       0.00402519
Si       9.59897455       5.54197054      34.21510766        3       0.00000000      -0.00000000      -0.01073067
Si       7.67917964       4.43357643      38.13387261        2      -0.00000000       0.00000000      -0.06524359
Si       0.00000000       0.00000000      37.35011962        2       0.00000000       0.00000000      -0.01485070
Si       5.75938473       1.10839411      38.13387261        2      -0.00000000       0.00000000      -0.06524359
Si       1.91979491       3.32518233      37.35011962        2       0.00000000      -0.00000000      -0.01485070
Si       3.83958982       4.43357643      38.13387261        2      -0.00000000      -0.00000000      -0.06524359
Si       3.83958982       0.00000000      37.35011962        2      -0.00000000      -0.00000000      -0.01485070
Si       1.91979491       1.10839411      38.13387261        2      -0.00000000      -0.00000000      -0.06524359
Si       5.75938473       3.32518233      37.35011962        2       0.00000000       0.00000000      -0.01485070
Si       3.83958982       2.21678822      41.26888457        1       0.00000000       0.00000000       0.12283146
Si       7.67917964       4.43357643      40.48513158        1      -0.00000000      -0.00000000       0.11446712
Si       5.75938473       5.54197054      41.26888457        1      -0.00000000       0.00000000       0.12283146
Si       5.75938473       1.10839411      40.48513158        1      -0.00000000       0.00000000       0.11446712
Si       7.67917964       2.21678822      41.26888457        1       0.00000000      -0.00000000       0.12283146
Si       3.83958982       4.43357643      40.48513158        1      -0.00000000       0.00000000       0.11446712
Si       9.59897455       5.54197054      41.26888457        1       0.00000000      -0.00000000       0.12283146
Si       1.91979491       1.10839411      40.48513158        1      -0.00000000       0.00000000       0.11446712
96
Lattice="5.43 0.0 0.0 0.0 5.43 0.0 0.0 0.0 79.8025" Properties=species:S:1:pos:R:3:tags:I:1:forces:R:3 config_type=slab miller=100 energy=-512.3968420799154 label_model=mpa-0 structure_key=eb7dbdf05ac25f7f51717c963a70f1ed0a606f75365efa690e0bee890cecc3b6 pbc="T T F"
Si       1.35750000       1.35750000       9.35750000       12      -0.00000000       0.00000000       0.13851801
Si       2.71500000       2.71500000      10.71500000       12       0.00000000       0.00000000      -0.05691596
Si       4.07250000       4.07250000       9.35750000       12       0.00000000      -0.00000000       0.13851801
Si       0.00000000       0.00000000      10.71500000       12      -0.00000000      -0.00000000      -0.05691596
Si       1.35750000       4.07250000      12.07250000       12       0.00000000      -0.00000000       0.00466394
Si       2.71500000       0.00000000       8.00000000       12       0.00000000      -0.00000000      -0.30844850
Si       4.07250000       1.35750000      12.07250000       12       0.00000000      -0.00000000       0.00466394
Si       0.00000000       2.71500000       8.00000000       12      -0.00000000       0.00000000      -0.30844850
Si       1.35750000       1.35750000      14.78750000       11      -0.00000000      -0.00000000      -0.00417746
Si       2.71500000       2.71500000      16.14500000       11       0.00000000       0.00000000       0.00062312
Si       4.07250000       4.07250000      14.78750000       11      -0.00000000      -0.00000000      -0.00417746
Si       0.00000000       0.00000000      16.14500000       11       0.00000000       0.00000000       0.00062312
Si       1.35750000       4.07250000      17.50250000       11      -0.00000000      -0.00000000      -0.00027168
Si       2.71500000       0.00000000      13.43000000       11       0.00000000      -0.00000000       0.05578913
Si       4.07250000       1.35750000      17.50250000       11      -0.00000000      -0.00000000      -0.00027168
Si       0.00000000       2.71500000      13.43000000       11       0.00000000       0.00000000       0.05578913
Si       1.35750000       1.35750000      20.21750000       10      -0.00000000      -0.00000000      -0.00018536
Si       2.71500000       2.71500000      21.57500000       10       0.00000000       0.00000000       0.00001324
Si       4.07250000       4.07250000      20.21750000       10       0.00000000      -0.00000000      -0.00018536
Si       0.00000000       0.00000000      21.57500000       10       0.00000000      -0.00000000       0.00001324
Si       1.35750000       4.07250000      22.93250000       10      -0.00000000      -0.00000000       0.00006052
Si       2.71500000       0.00000000      18.86000000       10       0.00000000      -0.00000000      -0.00011309
Si       4.07250000       1.35750000      22.93250000       10      -0.00000000      -0.00000000       0.00006052
Si       0.00000000       2.71500000      18.86000000       10      -0.00000000       0.00000000      -0.00011309
Si       1.35750000       1.35750000      25.64750000        9      -0.00000000      -0.00000000      -0.00000127
Si       2.71500000       2.71500000      27.00500000        9       0.00000000       0.00000000      -0.00000032
Si       4.07250000       4.07250000      25.64750000        9      -0.00000000      -0.00000000      -0.00000127
Si       0.00000000       0.00000000      27.00500000        9       0.00000000      -0.00000000      -0.00000032
Si       1.35750000       4.07250000      28.36250000        9      -0.00000000      -0.00000000      -0.00000001
Si       2.71500000       0.00000000      24.29000000        9       0.00000000      -0.00000000      -0.00000247
Si       4.07250000       1.35750000      28.36250000        9      -0.00000000      -0.00000000      -0.00000001
Si       0.00000000       2.71500000      24.29000000        9      -0.00000000       0.00000000      -0.00000247
Si       1.35750000       1.35750000      31.07750000        8      -0.00000000      -0.00000000      -0.00000000
Si       2.71500000       2.71500000      32.43500000        8       0.00000000       0.00000000      -0.00000000
Si       4.07250000       4.07250000      31.07750000        8      -0.00000000      -0.00000000      -0.00000000
Si       0.00000000       0.00000000      32.43500000        8       0.00000000       0.00000000      -0.00000000
Si       1.35750000       4.07250000      33.79250000        8      -0.00000000      -0.00000000       0.00000000
Si       2.71500000       0.00000000      29.72000000        8       0.00000000      -0.00000000       0.00000000
Si       4.07250000       1.35750000      33.79250000        8      -0.00000000      -0.00000000       0.00000000
Si       0.00000000       2.71500000      29.72000000        8      -0.00000000       0.00000000       0.00000000
Si       1.35750000       1.35750000      36.50750000        7       0.00000000      -0.00000000      -0.00000000
Si       2.71500000       2.71500000      37.86500000        7       0.00000000       0.00000000       0.00000000
Si       4.07250000       4.07250000      36.50750000        7      -0.00000000      -0.00000000      -0.00000000
Si       0.00000000       0.00000000      37.86500000        7       0.00000000       0.00000000       0.00000000
Si       1.35750000       4.07250000      39.22250000        7      -0.00000000      -0.00000000       0.00000000
Si       2.71500000       0.00000000      35.15000000        7       0.00000000      -0.00000000       0.00000000
Si       4.07250000       1.35750000      39.22250000        7      -0.00000000      -0.00000000       0.00000000
Si       0.00000000       2.71500000      35.15000000        7       0.00000000       0.00000000       0.00000000
Si       1.35750000       1.35750000      41.93750000        6      -0.00000000       0.00000000      -0.00000000
Si       2.71500000       2.71500000      43.29500000        6       0.00000000       0.00000000       0.00000000
Si       4.07250000       4.07250000      41.93750000        6      -0.00000000      -0.00000000      -0.00000000
Si       0.00000000       0.00000000      43.29500000        6      -0.00000000      -0.00000000       0.00000000
Si       1.35750000       4.07250000      44.65250000        6      -0.00000000      -0.00000000       0.00000000
Si       2.71500000       0.00000000      40.58000000        6       0.00000000       0.00000000      -0.00000000
Si       4.07250000       1.35750000      44.65250000        6      -0.00000000      -0.00000000       0.00000000
Si       0.00000000       2.71500000      40.58000000        6      -0.00000000       0.00000000      -0.00000000
Si       1.35750000       1.35750000      47.36750000        5      -0.00000000      -0.00000000      -0.00000000
Si       2.71500000       2.71500000      48.72500000        5       0.00000000       0.00000000       0.00000000
Si       4.07250000       4.07250000      47.36750000        5      -0.00000000       0.00000000      -0.00000000
Si       0.00000000       0.00000000      48.72500000        5      -0.00000000       0.00000000       0.00000000
Si       1.35750000       4.07250000      50.08250000        5      -0.00000000      -0.00000000      -0.00000000
Si       2.71500000       0.00000000      46.01000000        5       0.00000000      -0.00000000      -0.00000000
Si       4.07250000       1.35750000      50.08250000        5      -0.00000000      -0.00000000      -0.00000000
Si       0.00000000       2.71500000      46.01000000        5      -0.00000000       0.00000000      -0.00000000
Si       1.35750000       1.35750000      52.79750000        4      -0.00000000      -0.00000000       0.00000032
Si       2.71500000       2.71500000      54.15500000        4       0.00000000       0.00000000       0.00000127
Si       4.07250000       4.07250000      52.79750000        4      -0.00000000      -0.00000000       0.00000032
Si       0.00000000       0.00000000      54.15500000        4      -0.00000000      -0.00000000       0.00000127
Si       1.35750000       4.07250000      55.51250000        4      -0.00000000      -0.00000000       0.00000247
Si       2.71500000       0.00000000      51.44000000        4       0.00000000      -0.00000000       0.00000001
Si       4.07250000       1.35750000      55.51250000        4      -0.00000000      -0.00000000       0.00000247
Si       0.00000000       2.71500000      51.44000000        4       0.00000000       0.00000000       0.00000001
Si       1.35750000       1.35750000      58.22750000        3       0.00000000      -0.00000000      -0.00001324
Si       2.71500000       2.71500000      59.58500000        3       0.00000000       0.00000000       0.00018536
Si       4.07250000       4.07250000      58.22750000        3      -0.00000000      -0.00000000      -0.00001324
Si       0.00000000       0.00000000      59.58500000        3       0.00000000      -0.00000000       0.00018536
Si       1.35750000       4.07250000      60.94250000        3      -0.00000000      -0.00000000       0.00011309
Si       2.71500000       0.00000000      56.87000000        3       0.00000000       0.00000000      -0.00006052
Si       4.07250000       1.35750000      60.94250000        3      -0.00000000      -0.00000000       0.00011309
Si       0.00000000       2.71500000      56.87000000        3      -0.00000000       0.00000000      -0.00006052
Si       1.35750000       1.35750000      63.65750000        2      -0.00000000      -0.00000000      -0.00062312
Si       2.71500000       2.71500000      65.01500000        2       0.00000000       0.00000000       0.00417746
Si       4.07250000       4.07250000      63.65750000        2      -0.00000000      -0.00000000      -0.00062312
Si       0.00000000       0.00000000      65.01500000        2       0.00000000       0.00000000       0.00417746
Si       1.35750000       4.07250000      66.37250000        2      -0.00000000      -0.00000000      -0.05578913
Si       2.71500000       0.00000000      62.30000000        2       0.00000000      -0.00000000       0.00027168
Si       4.07250000       1.35750000      66.37250000        2      -0.00000000      -0.00000000      -0.05578913
Si       0.00000000       2.71500000      62.30000000        2       0.00000000       0.00000000       0.00027168
Si       1.35750000       1.35750000      69.08750000        1      -0.00000000      -0.00000000       0.05691596
Si       2.71500000       2.71500000      70.44500000        1       0.00000000       0.00000000      -0.13851801
Si       4.07250000       4.07250000      69.08750000        1      -0.00000000      -0.00000000       0.05691596
Si       0.00000000       0.00000000      70.44500000        1       0.00000000      -0.00000000      -0.13851801
Si       1.35750000       4.07250000      71.80250000        1       0.00000000      -0.00000000       0.30844850
Si       2.71500000       0.00000000      67.73000000        1       0.00000000       0.00000000      -0.00466394
Si       4.07250000       1.35750000      71.80250000        1       0.00000000       0.00000000       0.30844850
Si       0.00000000       2.71500000      67.73000000        1      -0.00000000       0.00000000      -0.00466394
96
Lattice="7.679179643685906 0.0 0.0 0.0 5.43 0.0 0.0 0.0 60.15528295119397" Properties=species:S:1:pos:R:3:tags:I:1:forces:R:3 config_type=slab miller=110 energy=-512.6026136663091 label_model=mpa-0 structure_key=e65caeee5add70c3f7808e6c163354ab5e71317677176f9848ccc47d7b65aad7 pbc="T T F"
Si       7.67917964       4.07250000       9.91979491       12       0.00000000      -0.01540587      -0.14817580
Si       3.83958982       2.71500000       8.00000000       12      -0.00000000      -0.29184200      -0.02076463
Si       1.91979491       1.35750000       8.00000000       12      -0.00000000       0.29184200      -0.02076463
Si       1.91979491       0.00000000       9.91979491       12       0.00000000       0.01540587      -0.14817580
Si       5.75938473       1.35750000       8.00000000       12       0.00000000       0.29184200      -0.02076463
Si       5.75938473       0.00000000       9.91979491       12      -0.00000000       0.01540587      -0.14817580
Si       3.83958982       4.07250000       9.91979491       12      -0.00000000      -0.01540587      -0.14817580
Si       0.00000000       2.71500000       8.00000000       12      -0.00000000      -0.29184200      -0.02076463
Si       3.83958982       4.07250000      13.75938473       11      -0.00000000      -0.01199832       0.01266924
Si       7.67917964       2.71500000      11.83958982       11      -0.00000000       0.01591802       0.03033708
Si       5.75938473       1.35750000      11.83958982       11      -0.00000000      -0.01591802       0.03033708
Si       5.75938473       0.00000000      13.75938473       11       0.00000000       0.01199832       0.01266924
Si       1.91979491       1.35750000      11.83958982       11       0.00000000      -0.01591802       0.03033708
Si       1.91979491       0.00000000      13.75938473       11      -0.00000000       0.01199832       0.01266924
Si       7.67917964       4.07250000      13.75938473       11       0.00000000      -0.01199832       0.01266924
Si       3.83958982       2.71500000      11.83958982       11       0.00000000       0.01591802       0.03033708
Si       7.67917964       4.07250000      17.59897455       10       0.00000000      -0.00070815       0.00018851
Si       3.83958982       2.71500000      15.67917964       10       0.00000000       0.00125575       0.00509857
Si       1.91979491       1.35750000      15.67917964       10       0.00000000      -0.00125575       0.00509857
Si       1.91979491       0.00000000      17.59897455       10       0.00000000       0.00070815       0.00018851
Si       5.75938473       1.35750000      15.67917964       10      -0.00000000      -0.00125575       0.00509857
Si       5.75938473       0.00000000      17.59897455       10      -0.00000000       0.00070815       0.00018851
Si       3.83958982       4.07250000      17.59897455       10      -0.00000000      -0.00070815       0.00018851
Si       7.67917964       2.71500000      15.67917964       10      -0.00000000       0.00125575       0.00509857
Si       3.83958982       4.07250000      21.43856438        9      -0.00000000      -0.00000784      -0.00002463
Si       7.67917964       2.71500000      19.51876947        9      -0.00000000       0.00001150       0.00014923
Si       5.75938473       1.35750000      19.51876947        9       0.00000000      -0.00001150       0.00014923
Si       5.75938473       0.00000000      21.43856438        9       0.00000000       0.00000784      -0.00002463
Si       1.91979491       1.35750000      19.51876947        9      -0.00000000      -0.00001150       0.00014923
Si       1.91979491       0.00000000      21.43856438        9      -0.00000000       0.00000784      -0.00002463
Si       7.67917964       4.07250000      21.43856438        9       0.00000000      -0.00000784      -0.00002463
Si       3.83958982       2.71500000      19.51876947        9       0.00000000       0.00001150       0.00014923
Si       0.00000000       4.07250000      25.27815420        8      -0.00000000      -0.00000000      -0.00000002
Si       3.83958982       2.71500000      23.35835929        8       0.00000000       0.00000059      -0.00000260
Si       1.91979491       1.35750000      23.35835929        8      -0.00000000      -0.00000059      -0.00000260
Si       1.91979491       0.00000000      25.27815420        8      -0.00000000       0.00000000      -0.00000002
Si       5.75938473       1.35750000      23.35835929        8      -0.00000000      -0.00000059      -0.00000260
Si       5.75938473       0.00000000      25.27815420        8      -0.00000000       0.00000000      -0.00000002
Si       3.83958982       4.07250000      25.27815420        8       0.00000000      -0.00000000      -0.00000002
Si       7.67917964       2.71500000      23.35835929        8       0.00000000       0.00000059      -0.00000260
Si       3.83958982       4.07250000      29.11774402        7      -0.00000000       0.00000000      -0.00000000
Si       0.00000000       2.71500000      27.19794911        7      -0.00000000       0.00000000      -0.00000000
Si       5.75938473       1.35750000      27.19794911        7      -0.00000000      -0.00000000      -0.00000000
Si       5.75938473       0.00000000      29.11774402        7      -0.00000000       0.00000000      -0.00000000
Si       1.91979491       1.35750000      27.19794911        7      -0.00000000      -0.00000000      -0.00000000
Si       1.91979491       0.00000000      29.11774402        7      -0.00000000      -0.00000000       0.00000000
Si       7.67917964       4.07250000      29.11774402        7       0.00000000       0.00000000      -0.00000000
Si       3.83958982       2.71500000      27.19794911        7       0.00000000       0.00000000      -0.00000000
Si       0.00000000       4.07250000      32.95733384        6      -0.00000000      -0.00000000       0.00000000
Si       3.83958982       2.71500000      31.03753893        6       0.00000000      -0.00000000       0.00000000
Si       1.91979491       1.35750000      31.03753893        6      -0.00000000       0.00000000      -0.00000000
Si       1.91979491       0.00000000      32.95733384        6      -0.00000000       0.00000000       0.00000000
Si       5.75938473       1.35750000      31.03753893        6      -0.00000000      -0.00000000       0.00000000
Si       5.75938473       0.00000000      32.95733384        6       0.00000000       0.00000000       0.00000000
Si       3.83958982       4.07250000      32.95733384        6       0.00000000      -0.00000000       0.00000000
Si       7.67917964       2.71500000      31.03753893        6       0.00000000      -0.00000000      -0.00000000
Si       3.83958982       4.07250000      36.79692366        5      -0.00000000      -0.00000059       0.00000260
Si       0.00000000       2.71500000      34.87712875        5      -0.00000000       0.00000000       0.00000002
Si       5.75938473       1.35750000      34.87712875        5      -0.00000000      -0.00000000       0.00000002
Si       5.75938473       0.00000000      36.79692366        5       0.00000000       0.00000059       0.00000260
Si       1.91979491       1.35750000      34.87712875        5       0.00000000      -0.00000000       0.00000002
Si       1.91979491       0.00000000      36.79692366        5      -0.00000000       0.00000059       0.00000260
Si       7.67917964       4.07250000      36.79692366        5       0.00000000      -0.00000059       0.00000260
Si       3.83958982       2.71500000      34.87712875        5       0.00000000       0.00000000       0.00000002
Si       0.00000000       4.07250000      40.63651349        4      -0.00000000      -0.00001150      -0.00014923
Si       3.83958982       2.71500000      38.71671857        4      -0.00000000       0.00000784       0.00002463
Si       1.91979491       1.35750000      38.71671857        4      -0.00000000      -0.00000784       0.00002463
Si       1.91979491       0.00000000      40.63651349        4       0.00000000       0.00001150      -0.00014923
Si       5.75938473       1.35750000      38.71671857        4       0.00000000      -0.00000784       0.00002463
Si       5.75938473       0.00000000      40.63651349        4       0.00000000       0.00001150      -0.00014923
Si       3.83958982       4.07250000      40.63651349        4      -0.00000000      -0.00001150      -0.00014923
Si       7.67917964       2.71500000      38.71671857        4      -0.00000000       0.00000784       0.00002463
Si       3.83958982       4.07250000      44.47610331        3      -0.00000000      -0.00125575      -0.00509857
Si       0.00000000       2.71500000      42.55630840        3      -0.00000000       0.00070815      -0.00018851
Si       5.75938473       1.35750000      42.55630840        3      -0.00000000      -0.00070815      -0.00018851
Si       5.75938473       0.00000000      44.47610331        3       0.00000000       0.00125575      -0.00509857
Si       1.91979491       1.35750000      42.55630840        3      -0.00000000      -0.00070815      -0.00018851
Si       1.91979491       0.00000000      44.47610331        3       0.00000000       0.00125575      -0.00509857
Si       0.00000000       4.07250000      44.47610331        3      -0.00000000      -0.00125575      -0.00509857
Si       3.83958982       2.71500000      42.55630840        3       0.00000000       0.00070815      -0.00018851
Si       0.00000000       4.07250000      48.31569313        2      -0.00000000      -0.01591802      -0.03033708
Si       3.83958982       2.71500000      46.39589822        2      -0.00000000       0.01199832      -0.01266924
Si       1.91979491       1.35750000      46.39589822        2      -0.00000000      -0.01199832      -0.01266924
Si       1.91979491       0.00000000      48.31569313        2       0.00000000       0.01591802      -0.03033708
Si       5.75938473       1.35750000      46.39589822        2       0.00000000      -0.01199832      -0.01266924
Si       5.75938473       0.00000000      48.31569313        2       0.00000000       0.01591802      -0.03033708
Si       3.83958982       4.07250000      48.31569313        2      -0.00000000      -0.01591802      -0.03033708
Si       7.67917964       2.71500000      46.39589822        2       0.00000000       0.01199832      -0.01266924
Si       3.83958982       4.07250000      52.15528295        1      -0.00000000       0.29184200       0.02076463
Si       7.67917964       2.71500000      50.23548804        1       0.00000000       0.01540587       0.14817580
Si       5.75938473       1.35750000      50.23548804        1      -0.00000000      -0.01540587       0.14817580
Si       5.75938473       0.00000000      52.15528295        1       0.00000000      -0.29184200       0.02076463
Si       1.91979491       1.35750000      50.23548804        1       0.00000000      -0.01540587       0.14817580
Si       1.91979491       0.00000000      52.15528295        1       0.00000000      -0.29184200       0.02076463
Si       7.67917964       4.07250000      52.15528295        1       0.00000000       0.29184200       0.02076463
Si       3.83958982       2.71500000      50.23548804        1      -0.00000000       0.01540587       0.14817580
96
Lattice="7.679179643685906 0.0 0.0 3.8395898218429525 6.650364651656329 0.0 0.0 0.0 51.26888456912127" Properties=species:S:1:pos:R:3:tags:I:1:forces:R:3 config_type=slab miller=111 energy=-512.3210260585329 label_model=mpa-0 structure_key=0a65866e7b1e6ffcce51aa0ffa9ae330fb60e364fe1bcb7b9b3392c929f134ee pbc="T T F"
Si       0.00000000       0.00000000       8.78375299       12      -0.00000000       0.00000000      -0.11446712
Si       3.83958982       2.21678822       8.00000000       12       0.00000000      -0.00000000      -0.12283146
Si       1.91979491       3.32518233       8.78375299       12      -0.00000000       0.00000000      -0.11446712
Si       5.75938473       5.54197054       8.00000000       12      -0.00000000       0.00000000      -0.12283146
Si       3.83958982       0.00000000       8.78375299       12      -0.00000000      -0.00000000      -0.11446712
Si       7.67917964       2.21678822       8.00000000       12       0.00000000      -0.00000000      -0.12283146
Si       5.75938473       3.32518233       8.78375299       12       0.00000000      -0.00000000      -0.11446712
Si       9.59897455       5.54197054       8.00000000       12       0.00000000       0.00000000      -0.12283146
Si       7.67917964       4.43357643      11.91876495       11      -0.00000000      -0.00000000       0.01485070
Si       0.00000000       0.00000000      11.13501196       11       0.00000000      -0.00000000       0.06524359
Si       5.75938473       1.10839411      11.91876495       11      -0.00000000      -0.00000000       0.01485070
Si       1.91979491       3.32518233      11.13501196       11       0.00000000      -0.00000000       0.06524359
Si       3.83958982       4.43357643      11.91876495       11      -0.00000000      -0.00000000       0.01485070
Si       7.67917964       6.65036465      11.13501196       11       0.00000000       0.00000000       0.06524359
Si       1.91979491       1.10839411      11.91876495       11      -0.00000000       0.00000000       0.01485070
Si       5.75938473       3.32518233      11.13501196       11       0.00000000       0.00000000       0.06524359
Si       3.83958982       2.21678822      15.05377691       10      -0.00000000       0.00000000       0.01073067
Si       7.67917964       4.43357643      14.27002392       10       0.00000000      -0.00000000      -0.00402519
Si       5.75938473       5.54197054      15.05377691       10      -0.00000000      -0.00000000       0.01073067
Si       5.75938473       1.10839411      14.27002392       10       0.00000000      -0.00000000      -0.00402519
Si       7.67917964       2.21678822      15.05377691       10       0.00000000      -0.00000000       0.01073067
Si       3.83958982       4.43357643      14.27002392       10       0.00000000       0.00000000      -0.00402519
Si       9.59897455       5.54197054      15.05377691       10       0.00000000      -0.00000000       0.01073067
Si       1.91979491       1.10839411      14.27002392       10       0.00000000       0.00000000      -0.00402519
Si       0.00000000       0.00000000      18.18878888        9      -0.00000000       0.00000000       0.00089268
Si       3.83958982       2.21678822      17.40503589        9       0.00000000       0.00000000       0.00194183
Si       1.91979491       3.32518233      18.18878888        9      -0.00000000       0.00000000       0.00089268
Si       5.75938473       5.54197054      17.40503589        9       0.00000000       0.00000000       0.00194183
Si       3.83958982       0.00000000      18.18878888        9       0.00000000      -0.00000000       0.00089268
Si       7.67917964       2.21678822      17.40503589        9      -0.00000000       0.00000000       0.00194183
Si       5.75938473       3.32518233      18.18878888        9       0.00000000      -0.00000000       0.00089268
Si       9.59897455       5.54197054      17.40503589        9       0.00000000      -0.00000000       0.00194183
Si       7.67917964       4.43357643      21.32380084        8      -0.00000000       0.00000000       0.00000037
Si       0.00000000       0.00000000      20.54004785        8       0.00000000      -0.00000000       0.00005177
Si       5.75938473       1.10839411      21.32380084        8      -0.00000000       0.00000000       0.00000037
Si       1.91979491       3.32518233      20.54004785        8       0.00000000      -0.00000000       0.00005177
Si       3.83958982       4.43357643      21.32380084        8      -0.00000000      -0.00000000       0.00000037
Si       3.83958982       0.00000000      20.54004785        8       0.00000000       0.00000000       0.00005177
Si       1.91979491       1.10839411      21.32380084        8       0.00000000       0.00000000       0.00000037
Si       5.75938473       3.32518233      20.54004785        8       0.00000000       0.00000000       0.00005177
Si       3.83958982       2.21678822      24.45881280        7      -0.00000000      -0.00000000      -0.00000000
Si       7.67917964       4.43357643      23.67505981        7       0.00000000       0.00000000      -0.00000028
Si       5.75938473       5.54197054      24.45881280        7      -0.00000000       0.00000000      -0.00000000
Si       5.75938473       1.10839411      23.67505981        7       0.00000000      -0.00000000      -0.00000028
Si       7.67917964       2.21678822      24.45881280        7       0.00000000      -0.00000000      -0.00000000
Si       3.83958982       4.43357643      23.67505981        7       0.00000000       0.00000000      -0.00000028
Si       9.59897455       5.54197054      24.45881280        7      -0.00000000      -0.00000000      -0.00000000
Si       1.91979491       1.10839411      23.67505981        7       0.00000000       0.00000000      -0.00000028
Si       0.00000000       0.00000000      27.59382476        6       0.00000000      -0.00000000       0.00000028
Si       3.83958982       2.21678822      26.81007177        6       0.00000000      -0.00000000       0.00000000
Si       1.91979491       3.32518233      27.59382476        6       0.00000000       0.00000000       0.00000028
Si       5.75938473       5.54197054      26.81007177        6       0.00000000       0.00000000       0.00000000
Si       3.83958982       0.00000000      27.59382476        6       0.00000000       0.00000000       0.00000028
Si       7.67917964       2.21678822      26.81007177        6      -0.00000000       0.00000000       0.00000000
Si       5.75938473       3.32518233      27.59382476        6       0.00000000      -0.00000000       0.00000028
Si       9.59897455       5.54197054      26.81007177        6      -0.00000000      -0.00000000       0.00000000
Si       7.67917964       4.43357643      30.72883672        5       0.00000000       0.00000000      -0.00005177
Si       0.00000000       0.00000000      29.94508373        5       0.00000000      -0.00000000      -0.00000037
Si       5.75938473       1.10839411      30.72883672        5      -0.00000000       0.00000000      -0.00005177
Si       1.91979491       3.32518233      29.94508373        5       0.00000000      -0.00000000      -0.00000037
Si       3.83958982       4.43357643      30.72883672        5       0.00000000       0.00000000      -0.00005177
Si       7.67917964       6.65036465      29.94508373        5      -0.00000000       0.00000000      -0.00000037
Si       1.91979491       1.10839411      30.72883672        5       0.00000000       0.00000000      -0.00005177
Si       5.75938473       3.32518233      29.94508373        5      -0.00000000       0.00000000      -0.00000037
Si       3.83958982       2.21678822      33.86384868        4      -0.00000000      -0.00000000      -0.00194183
Si       7.67917964       4.43357643      33.08009569        4       0.00000000      -0.00000000      -0.00089268
Si       5.75938473       5.54197054      33.86384868        4      -0.00000000       0.00000000      -0.00194183
Si       5.75938473       1.10839411      33.08009569        4      -0.00000000       0.00000000      -0.00089268
Si       7.67917964       2.21678822      33.86384868        4      -0.00000000       0.00000000      -0.00194183
Si       3.83958982       4.43357643      33.08009569        4       0.00000000      -0.00000000      -0.00089268
Si       9.59897455       5.54197054      33.86384868        4      -0.00000000       0.00000000      -0.00194183
Si       1.91979491       1.10839411      33.08009569        4       0.00000000      -0.00000000      -0.00089268
Si       0.00000000       0.00000000      36.99886065        3      -0.00000000       0.00000000       0.00402519
Si       3.83958982       2.21678822      36.21510766        3       0.00000000       0.00000000      -0.01073067
Si       1.91979491       3.32518233      36.99886065        3       0.00000000      -0.00000000       0.00402519
Si       5.75938473       5.54197054      36.21510766        3       0.00000000      -0.00000000      -0.01073067
Si       3.83958982       0.00000000      36.99886065        3       0.00000000       0.00000000       0.00402519
Si       7.67917964       2.21678822      36.21510766        3      -0.00000000      -0.00000000      -0.01073067
Si       5.75938473       3.32518233      36.99886065        3       0.00000000      -0.00000000       0.00402519
Si       9.59897455       5.54197054      36.21510766        3       0.00000000      -0.00000000      -0.01073067
Si       7.67917964       4.43357643      40.13387261        2      -0.00000000       0.00000000      -0.06524359
Si       0.00000000       0.00000000      39.35011962        2       0.00000000       0.00000000      -0.01485070
Si       5.75938473       1.10839411      40.13387261        2      -0.00000000      -0.00000000      -0.06524359
Si       1.91979491       3.32518233      39.35011962        2       0.00000000      -0.00000000      -0.01485070
Si       3.83958982       4.43357643      40.13387261        2      -0.00000000      -0.00000000      -0.06524359
Si       3.83958982       0.00000000      39.35011962        2      -0.00000000       0.00000000      -0.01485070
Si       1.91979491       1.10839411      40.13387261        2      -0.00000000      -0.00000000      -0.06524359
Si       5.75938473       3.32518233      39.35011962        2       0.00000000       0.00000000      -0.01485070
Si       3.83958982       2.21678822      43.26888457        1       0.00000000       0.00000000       0.12283146
Si       7.67917964       4.43357643      42.48513158        1      -0.00000000      -0.00000000       0.11446712
Si       5.75938473       5.54197054      43.26888457        1       0.00000000       0.00000000       0.12283146
Si       5.75938473       1.10839411      42.48513158        1      -0.00000000       0.00000000       0.11446712
Si       7.67917964       2.21678822      43.26888457        1       0.00000000      -0.00000000       0.12283146
Si       3.83958982       4.43357643      42.48513158        1      -0.00000000      -0.00000000       0.11446712
Si       9.59897455       5.54197054      43.26888457        1       0.00000000      -0.00000000       0.12283146
Si       1.91979491       1.10839411      42.48513158        1      -0.00000000       0.00000000       0.11446712
96
Lattice="5.43 0.0 0.0 0.0 5.43 0.0 0.0 0.0 83.8025" Properties=species:S:1:pos:R:3:tags:I:1:forces:R:3 config_type=slab miller=100 energy=-512.3968420799152 label_model=mpa-0 structure_key=f53740af3e6f37fb8ecb2823b7f75ada82404892487d28122ce68d87218de729 pbc="T T F"
Si       1.35750000       1.35750000      11.35750000       12      -0.00000000      -0.00000000       0.13851801
Si       2.71500000       2.71500000      12.71500000       12       0.00000000       0.00000000      -0.05691596
Si       4.07250000       4.07250000      11.35750000       12       0.00000000       0.00000000       0.13851801
Si       0.00000000       0.00000000      12.71500000       12      -0.00000000      -0.00000000      -0.05691596
Si       1.35750000       4.07250000      14.07250000       12      -0.00000000       0.00000000       0.00466394
Si       2.71500000       0.00000000      10.00000000       12       0.00000000      -0.00000000      -0.30844850
Si       4.07250000       1.35750000      14.07250000       12      -0.00000000       0.00000000       0.00466394
Si       0.00000000       2.71500000      10.00000000       12      -0.00000000       0.00000000      -0.30844850
Si       1.35750000       1.35750000      16.78750000       11      -0.00000000      -0.00000000      -0.00417746
Si       2.71500000       2.71500000      18.14500000       11       0.00000000       0.00000000       0.00062312
Si       4.07250000       4.07250000      16.78750000       11      -0.00000000      -0.00000000      -0.00417746
Si       0.00000000       0.00000000      18.14500000       11       0.00000000       0.00000000       0.00062312
Si       1.35750000       4.07250000      19.50250000       11      -0.00000000      -0.00000000      -0.00027168
Si       2.71500000       0.00000000      15.43000000       11       0.00000000      -0.00000000       0.05578913
Si       4.07250000       1.35750000      19.50250000       11      -0.00000000      -0.00000000      -0.00027168
Si       0.00000000       2.71500000      15.43000000       11      -0.00000000       0.00000000       0.05578913
Si       1.35750000       1.35750000      22.21750000       10      -0.00000000      -0.00000000      -0.00018536
Si       2.71500000       2.71500000      23.57500000       10       0.00000000       0.00000000       0.00001324
Si       4.07250000       4.07250000      22.21750000       10       0.00000000      -0.00000000      -0.00018536
Si       0.00000000       0.00000000      23.57500000       10      -0.00000000       0.00000000       0.00001324
Si       1.35750000       4.07250000      24.93250000       10      -0.00000000      -0.00000000       0.00006052
Si       2.71500000       0.00000000      20.86000000       10       0.00000000      -0.00000000      -0.00011309
Si       4.07250000       1.35750000      24.93250000       10      -0.00000000      -0.00000000       0.00006052
Si       0.00000000       2.71500000      20.86000000       10       0.00000000       0.00000000      -0.00011309
Si       1.35750000       1.35750000      27.64750000        9      -0.00000000      -0.00000000      -0.00000127
Si       2.71500000       2.71500000      29.00500000        9       0.00000000       0.00000000      -0.00000032
Si       4.07250000       4.07250000      27.64750000        9       0.00000000       0.00000000      -0.00000127
Si       0.00000000       0.00000000      29.00500000        9      -0.00000000      -0.00000000      -0.00000032
Si       1.35750000       4.07250000      30.36250000        9      -0.00000000      -0.00000000      -0.00000001
Si       2.71500000       0.00000000      26.29000000        9       0.00000000      -0.00000000      -0.00000247
Si       4.07250000       1.35750000      30.36250000        9      -0.00000000      -0.00000000      -0.00000001
Si       0.00000000       2.71500000      26.29000000        9      -0.00000000       0.00000000      -0.00000247
Si       1.35750000       1.35750000      33.07750000        8      -0.00000000      -0.00000000      -0.00000000
Si       2.71500000       2.71500000      34.43500000        8       0.00000000       0.00000000      -0.00000000
Si       4.07250000       4.07250000      33.07750000        8       0.00000000      -0.00000000      -0.00000000
Si       0.00000000       0.00000000      34.43500000        8      -0.00000000      -0.00000000      -0.00000000
Si       1.35750000       4.07250000      35.79250000        8      -0.00000000      -0.00000000       0.00000000
Si       2.71500000       0.00000000      31.72000000        8       0.00000000      -0.00000000       0.00000000
Si       4.07250000       1.35750000      35.79250000        8      -0.00000000      -0.00000000       0.00000000
Si       0.00000000       2.71500000      31.72000000        8      -0.00000000       0.00000000       0.00000000
Si       1.35750000       1.35750000      38.50750000        7      -0.00000000      -0.00000000      -0.00000000
Si       2.71500000       2.71500000      39.86500000        7       0.00000000       0.00000000       0.00000000
Si       4.07250000       4.07250000      38.50750000        7      -0.00000000      -0.00000000      -0.00000000
Si       0.00000000       0.00000000      39.86500000        7       0.00000000      -0.00000000       0.00000000
Si       1.35750000       4.07250000      41.22250000        7      -0.00000000      -0.00000000       0.00000000
Si       2.71500000       0.00000000      37.15000000        7       0.00000000      -0.00000000       0.00000000
Si       4.07250000       1.35750000      41.22250000        7      -0.00000000      -0.00000000       0.00000000
Si       0.00000000       2.71500000      37.15000000        7      -0.00000000       0.00000000       0.00000000
Si       1.35750000       1.35750000      43.93750000        6       0.00000000      -0.00000000      -0.00000000
Si       2.71500000       2.71500000      45.29500000        6       0.00000000       0.00000000       0.00000000
Si       4.07250000       4.07250000      43.93750000        6      -0.00000000      -0.00000000      -0.00000000
Si       0.00000000       0.00000000      45.29500000        6      -0.00000000      -0.00000000       0.00000000
Si       1.35750000       4.07250000      46.65250000        6      -0.00000000      -0.00000000       0.00000000
Si       2.71500000       0.00000000      42.58000000        6       0.00000000      -0.00000000      -0.00000000
Si       4.07250000       1.35750000      46.65250000        6      -0.00000000      -0.00000000       0.00000000
Si       0.00000000       2.71500000      42.58000000        6      -0.00000000       0.00000000      -0.00000000
Si       1.35750000       1.35750000      49.36750000        5      -0.00000000      -0.00000000      -0.00000000
Si       2.71500000       2.71500000      50.72500000        5       0.00000000       0.00000000       0.00000000
Si       4.07250000       4.07250000      49.36750000        5      -0.00000000      -0.00000000      -0.00000000
Si       0.00000000       0.00000000      50.72500000        5      -0.00000000       0.00000000       0.00000000
Si       1.35750000       4.07250000      52.08250000        5      -0.00000000      -0.00000000      -0.00000000
Si       2.71500000       0.00000000      48.01000000        5       0.00000000       0.00000000      -0.00000000
Si       4.07250000       1.35750000      52.08250000        5      -0.00000000      -0.00000000      -0.00000000
Si       0.00000000       2.71500000      48.01000000        5      -0.00000000       0.00000000      -0.00000000
Si       1.35750000       1.35750000      54.79750000        4       0.00000000      -0.00000000       0.00000032
Si       2.71500000       2.71500000      56.15500000        4       0.00000000       0.00000000       0.00000127
Si       4.07250000       4.07250000      54.79750000        4      -0.00000000      -0.00000000       0.00000032
Si       0.00000000       0.00000000      56.15500000        4      -0.00000000      -0.00000000       0.00000127
Si       1.35750000       4.07250000      57.51250000        4      -0.00000000      -0.00000000       0.00000247
Si       2.71500000       0.00000000      53.44000000        4       0.00000000       0.00000000       0.00000001
Si       4.07250000       1.35750000      57.51250000        4      -0.00000000      -0.00000000       0.00000247
Si       0.00000000       2.71500000      53.44000000        4      -0.00000000       0.00000000       0.00000001
Si       1.35750000       1.35750000      60.22750000        3      -0.00000000      -0.00000000      -0.00001324
Si       2.71500000       2.71500000      61.58500000        3       0.00000000       0.00000000       0.00018536
Si       4.07250000       4.07250000      60.22750000        3      -0.00000000      -0.00000000      -0.00001324
Si       0.00000000       0.00000000      61.58500000        3      -0.00000000      -0.00000000       0.00018536
Si       1.35750000       4.07250000      62.94250000        3      -0.00000000      -0.00000000       0.00011309
Si       2.71500000       0.00000000      58.87000000        3       0.00000000       0.00000000      -0.00006052
Si       4.07250000       1.35750000      62.94250000        3      -0.00000000      -0.00000000       0.00011309
Si       0.00000000       2.71500000      58.87000000        3      -0.00000000       0.00000000      -0.00006052
Si       1.35750000       1.35750000      65.65750000        2      -0.00000000      -0.00000000      -0.00062312
Si       2.71500000       2.71500000      67.01500000        2       0.00000000       0.00000000       0.00417746
Si       4.07250000       4.07250000      65.65750000        2      -0.00000000      -0.00000000      -0.00062312
Si       0.00000000       0.00000000      67.01500000        2       0.00000000      -0.00000000       0.00417746
Si       1.35750000       4.07250000      68.37250000        2      -0.00000000      -0.00000000      -0.05578913
Si       2.71500000       0.00000000      64.30000000        2       0.00000000       0.00000000       0.00027168
Si       4.07250000       1.35750000      68.37250000        2      -0.00000000      -0.00000000      -0.05578913
Si       0.00000000       2.71500000      64.30000000        2      -0.00000000       0.00000000       0.00027168
Si       1.35750000       1.35750000      71.08750000        1      -0.00000000      -0.00000000       0.05691596
Si       2.71500000       2.71500000      72.44500000        1       0.00000000       0.00000000      -0.13851801
Si       4.07250000       4.07250000      71.08750000        1       0.00000000      -0.00000000       0.05691596
Si       0.00000000       0.00000000      72.44500000        1      -0.00000000       0.00000000      -0.13851801
Si       1.35750000       4.07250000      73.80250000        1       0.00000000      -0.00000000       0.30844850
Si       2.71500000       0.00000000      69.73000000        1       0.00000000       0.00000000      -0.00466394
Si       4.07250000       1.35750000      73.80250000        1      -0.00000000       0.00000000       0.30844850
Si       0.00000000       2.71500000      69.73000000        1       0.00000000      -0.00000000      -0.00466394
96
Lattice="7.679179643685906 0.0 0.0 0.0 5.43 0.0 0.0 0.0 64.15528295119397" Properties=species:S:1:pos:R:3:tags:I:1:forces:R:3 config_type=slab miller=110 energy=-512.602613666309 label_model=mpa-0 structure_key=014eb22565bbcfb07682c0f7752ce56a23569a8ee2f104a58d6a94154615e7f3 pbc="T T F"
Si       7.67917964       4.07250000      11.91979491       12       0.00000000      -0.01540587      -0.14817580
Si       3.83958982       2.71500000      10.00000000       12      -0.00000000      -0.29184200      -0.02076463
Si       1.91979491       1.35750000      10.00000000       12      -0.00000000       0.29184200      -0.02076463
Si       1.91979491       0.00000000      11.91979491       12       0.00000000       0.01540587      -0.14817580
Si       5.75938473       1.35750000      10.00000000       12       0.00000000       0.29184200      -0.02076463
Si       5.75938473       0.00000000      11.91979491       12      -0.00000000       0.01540587      -0.14817580
Si       3.83958982       4.07250000      11.91979491       12      -0.00000000      -0.01540587      -0.14817580
Si       0.00000000       2.71500000      10.00000000       12      -0.00000000      -0.29184200      -0.02076463
Si       3.83958982       4.07250000      15.75938473       11       0.00000000      -0.01199832       0.01266924
Si       7.67917964       2.71500000      13.83958982       11      -0.00000000       0.01591802       0.03033708
Si       5.75938473       1.35750000      13.83958982       11      -0.00000000      -0.01591802       0.03033708
Si       5.75938473       0.00000000      15.75938473       11       0.00000000       0.01199832       0.01266924
Si       1.91979491       1.35750000      13.83958982       11       0.00000000      -0.01591802       0.03033708
Si       1.91979491       0.00000000      15.75938473       11      -0.00000000       0.01199832       0.01266924
Si       7.67917964       4.07250000      15.75938473       11       0.00000000      -0.01199832       0.01266924
Si       3.83958982       2.71500000      13.83958982       11      -0.00000000       0.01591802       0.03033708
Si       7.67917964       4.07250000      19.59897455       10      -0.00000000      -0.00070815       0.00018851
Si       3.83958982       2.71500000      17.67917964       10      -0.00000000       0.00125575       0.00509857
Si       1.91979491       1.35750000      17.67917964       10       0.00000000      -0.00125575       0.00509857
Si       1.91979491       0.00000000      19.59897455       10      -0.00000000       0.00070815       0.00018851
Si       5.75938473       1.35750000      17.67917964       10      -0.00000000      -0.00125575       0.00509857
Si       5.75938473       0.00000000      19.59897455       10       0.00000000       0.00070815       0.00018851
Si       3.83958982       4.07250000      19.59897455       10      -0.00000000      -0.00070815       0.00018851
Si       7.67917964       2.71500000      17.67917964       10      -0.00000000       0.00125575       0.00509857
Si       3.83958982       4.07250000      23.43856438        9      -0.00000000      -0.00000784      -0.00002463
Si       7.67917964       2.71500000      21.51876947        9      -0.00000000       0.00001150       0.00014923
Si       5.75938473       1.35750000      21.51876947        9       0.00000000      -0.00001150       0.00014923
Si       5.75938473       0.00000000      23.43856438        9      -0.00000000       0.00000784      -0.00002463
Si       1.91979491       1.35750000      21.51876947        9      -0.00000000      -0.00001150       0.00014923
Si       1.91979491       0.00000000      23.43856438        9      -0.00000000       0.00000784      -0.00002463
Si       7.67917964       4.07250000      23.43856438        9       0.00000000      -0.00000784      -0.00002463
Si       3.83958982       2.71500000      21.51876947        9       0.00000000       0.00001150       0.00014923
Si       0.00000000       4.07250000      27.27815420        8      -0.00000000      -0.00000000      -0.00000002
Si       3.83958982       2.71500000      25.35835929        8       0.00000000       0.00000059      -0.00000260
Si       1.91979491       1.35750000      25.35835929        8      -0.00000000      -0.00000059      -0.00000260
Si       1.91979491       0.00000000      27.27815420        8      -0.00000000       0.00000000      -0.00000002
Si       5.75938473       1.35750000      25.35835929        8      -0.00000000      -0.00000059      -0.00000260
Si       5.75938473       0.00000000      27.27815420        8      -0.00000000       0.00000000      -0.00000002
Si       3.83958982       4.07250000      27.27815420        8       0.00000000      -0.00000000      -0.00000002
Si       7.67917964       2.71500000      25.35835929        8       0.00000000       0.00000059      -0.00000260
Si       3.83958982       4.07250000      31.11774402        7       0.00000000      -0.00000000      -0.00000000
Si       0.00000000       2.71500000      29.19794911        7       0.00000000       0.00000000      -0.00000000
Si       5.75938473       1.35750000      29.19794911        7      -0.00000000      -0.00000000      -0.00000000
Si       5.75938473       0.00000000      31.11774402        7       0.00000000       0.00000000      -0.00000000
Si       1.91979491       1.35750000      29.19794911        7      -0.00000000      -0.00000000      -0.00000000
Si       1.91979491       0.00000000      31.11774402        7      -0.00000000      -0.00000000       0.00000000
Si       7.67917964       4.07250000      31.11774402        7       0.00000000      -0.00000000      -0.00000000
Si       3.83958982       2.71500000      29.19794911        7       0.00000000       0.00000000      -0.00000000
Si       0.00000000       4.07250000      34.95733384        6      -0.00000000      -0.00000000       0.00000000
Si       3.83958982       2.71500000      33.03753893        6      -0.00000000      -0.00000000      -0.00000000
Si       1.91979491       1.35750000      33.03753893        6      -0.00000000       0.00000000      -0.00000000
Si       1.91979491       0.00000000      34.95733384        6       0.00000000       0.00000000       0.00000000
Si       5.75938473       1.35750000      33.03753893        6      -0.00000000       0.00000000      -0.00000000
Si       5.75938473       0.00000000      34.95733384        6      -0.00000000       0.00000000       0.00000000
Si       3.83958982       4.07250000      34.95733384        6       0.00000000      -0.00000000       0.00000000
Si       7.67917964       2.71500000      33.03753893        6       0.00000000      -0.00000000      -0.00000000
Si       3.83958982       4.07250000      38.79692366        5      -0.00000000      -0.00000059       0.00000260
Si       0.00000000       2.71500000      36.87712875        5      -0.00000000       0.00000000       0.00000002
Si       5.75938473       1.35750000      36.87712875        5      -0.00000000      -0.00000000       0.00000002
Si       5.75938473       0.00000000      38.79692366        5       0.00000000       0.00000059       0.00000260
Si       1.91979491       1.35750000      36.87712875        5       0.00000000      -0.00000000       0.00000002
Si       1.91979491       0.00000000      38.79692366        5      -0.00000000       0.00000059       0.00000260
Si       7.67917964       4.07250000      38.79692366        5       0.00000000      -0.00000059       0.00000260
Si       3.83958982       2.71500000      36.87712875        5       0.00000000       0.00000000       0.00000002
Si       0.00000000       4.07250000      42.63651349        4      -0.00000000      -0.00001150      -0.00014923
Si       3.83958982       2.71500000      40.71671857        4      -0.00000000       0.00000784       0.00002463
Si       1.91979491       1.35750000      40.71671857        4      -0.00000000      -0.00000784       0.00002463
Si       1.91979491       0.00000000      42.63651349        4       0.00000000       0.00001150      -0.00014923
Si       5.75938473       1.35750000      40.71671857        4       0.00000000      -0.00000784       0.00002463
Si       5.75938473       0.00000000      42.63651349        4       0.00000000       0.00001150      -0.00014923
Si       3.83958982       4.07250000      42.63651349        4      -0.00000000      -0.00001150      -0.00014923
Si       7.67917964       2.71500000      40.71671857        4      -0.00000000       0.00000784       0.00002463
Si       3.83958982       4.07250000      46.47610331        3      -0.00000000      -0.00125575      -0.00509857
Si       0.00000000       2.71500000      44.55630840        3      -0.00000000       0.00070815      -0.00018851
Si       5.75938473       1.35750000      44.55630840        3      -0.00000000      -0.00070815      -0.00018851
Si       5.75938473       0.00000000      46.47610331        3       0.00000000       0.00125575      -0.00509857
Si       1.91979491       1.35750000      44.55630840        3      -0.00000000      -0.00070815      -0.00018851
Si       1.91979491       0.00000000      46.47610331        3       0.00000000       0.00125575      -0.00509857
Si       0.00000000       4.07250000      46.47610331        3      -0.00000000      -0.00125575      -0.00509857
Si       3.83958982       2.71500000      44.55630840        3       0.00000000       0.00070815      -0.00018851
Si       0.00000000       4.07250000      50.31569313        2      -0.00000000      -0.01591802      -0.03033708
Si       3.83958982       2.71500000      48.39589822        2      -0.00000000       0.01199832      -0.01266924
Si       1.91979491       1.35750000      48.39589822        2      -0.00000000      -0.01199832      -0.01266924
Si       1.91979491       0.00000000      50.31569313        2       0.00000000       0.01591802      -0.03033708
Si       5.75938473       1.35750000      48.39589822        2       0.00000000      -0.01199832      -0.01266924
Si       5.75938473       0.00000000      50.31569313        2       0.00000000       0.01591802      -0.03033708
Si       3.83958982       4.07250000      50.31569313        2      -0.00000000      -0.01591802      -0.03033708
Si       7.67917964       2.71500000      48.39589822        2       0.00000000       0.01199832      -0.01266924
Si       3.83958982       4.07250000      54.15528295        1      -0.00000000       0.29184200       0.02076463
Si       7.67917964       2.71500000      52.23548804        1       0.00000000       0.01540587       0.14817580
Si       5.75938473       1.35750000      52.23548804        1      -0.00000000      -0.01540587       0.14817580
Si       5.75938473       0.00000000      54.15528295        1       0.00000000      -0.29184200       0.02076463
Si       1.91979491       1.35750000      52.23548804        1       0.00000000      -0.01540587       0.14817580
Si       1.91979491       0.00000000      54.15528295        1       0.00000000      -0.29184200       0.02076463
Si       7.67917964       4.07250000      54.15528295        1       0.00000000       0.29184200       0.02076463
Si       3.83958982       2.71500000      52.23548804        1      -0.00000000       0.01540587       0.14817580
96
Lattice="7.679179643685906 0.0 0.0 3.8395898218429525 6.650364651656329 0.0 0.0 0.0 55.26888456912127" Properties=species:S:1:pos:R:3:tags:I:1:forces:R:3 config_type=slab miller=111 energy=-512.3210260585328 label_model=mpa-0 structure_key=aeb7565ea0bde09612b1ec8ec61e393176c533e45a7af4954a5a54562bff184a pbc="T T F"
Si       0.00000000       0.00000000      10.78375299       12      -0.00000000      -0.00000000      -0.11446712
Si       3.83958982       2.21678822      10.00000000       12       0.00000000      -0.00000000      -0.12283146
Si       1.91979491       3.32518233      10.78375299       12      -0.00000000       0.00000000      -0.11446712
Si       5.75938473       5.54197054      10.00000000       12      -0.00000000      -0.00000000      -0.12283146
Si       3.83958982       0.00000000      10.78375299       12      -0.00000000      -0.00000000      -0.11446712
Si       7.67917964       2.21678822      10.00000000       12       0.00000000       0.00000000      -0.12283146
Si       5.75938473       3.32518233      10.78375299       12       0.00000000      -0.00000000      -0.11446712
Si       9.59897455       5.54197054      10.00000000       12       0.00000000       0.00000000      -0.12283146
Si       7.67917964       4.43357643      13.91876495       11      -0.00000000      -0.00000000       0.01485070
Si       0.00000000       0.00000000      13.13501196       11       0.00000000      -0.00000000       0.06524359
Si       5.75938473       1.10839411      13.91876495       11      -0.00000000       0.00000000       0.01485070
Si       1.91979491       3.32518233      13.13501196       11       0.00000000       0.00000000       0.06524359
Si       3.83958982       4.43357643      13.91876495       11       0.00000000      -0.00000000       0.01485070
Si       7.67917964       6.65036465      13.13501196       11       0.00000000       0.00000000       0.06524359
Si       1.91979491       1.10839411      13.91876495       11      -0.00000000       0.00000000       0.01485070
Si       5.75938473       3.32518233      13.13501196       11       0.00000000       0.00000000       0.06524359
Si       3.83958982       2.21678822      17.05377691       10      -0.00000000       0.00000000       0.01073067
Si       7.67917964       4.43357643      16.27002392       10       0.00000000      -0.00000000      -0.00402519
Si       5.75938473       5.54197054      17.05377691       10      -0.00000000       0.00000000       0.01073067
Si       5.75938473       1.10839411      16.27002392       10       0.00000000      -0.00000000      -0.00402519
Si       7.67917964       2.21678822      17.05377691       10       0.00000000      -0.00000000       0.01073067
Si       3.83958982       4.43357643      16.27002392       10       0.00000000       0.00000000      -0.00402519
Si       9.59897455       5.54197054      17.05377691       10       0.00000000      -0.00000000       0.01073067
Si       1.91979491       1.10839411      16.27002392       10       0.00000000      -0.00000000      -0.00402519
Si       0.00000000       0.00000000      20.18878888        9      -0.00000000       0.00000000       0.00089268
Si       3.83958982       2.21678822      19.40503589        9       0.00000000       0.00000000       0.00194183
Si       1.91979491       3.32518233      20.18878888        9      -0.00000000       0.00000000       0.00089268
Si       5.75938473       5.54197054      19.40503589        9       0.00000000      -0.00000000       0.00194183
Si       3.83958982       0.00000000      20.18878888        9       0.00000000       0.00000000       0.00089268
Si       7.67917964       2.21678822      19.40503589        9      -0.00000000       0.00000000       0.00194183
Si       5.75938473       3.32518233      20.18878888        9       0.00000000      -0.00000000       0.00089268
Si       9.59897455       5.54197054      19.40503589        9       0.00000000       0.00000000       0.00194183
Si       7.67917964       4.43357643      23.32380084        8      -0.00000000       0.00000000       0.00000037
Si       0.00000000       0.00000000      22.54004785        8       0.00000000      -0.00000000       0.00005177
Si       5.75938473       1.10839411      23.32380084        8      -0.00000000       0.00000000       0.00000037
Si       1.91979491       3.32518233      22.54004785        8       0.00000000      -0.00000000       0.00005177
Si       3.83958982       4.43357643      23.32380084        8      -0.00000000      -0.00000000       0.00000037
Si       3.83958982       0.00000000      22.54004785        8       0.00000000      -0.00000000       0.00005177
Si       1.91979491       1.10839411      23.32380084        8      -0.00000000      -0.00000000       0.00000037
Si       5.75938473       3.32518233      22.54004785        8       0.00000000       0.00000000       0.00005177
Si       3.83958982       2.21678822      26.45881280        7      -0.00000000       0.00000000      -0.00000000
Si       7.67917964       4.43357643      25.67505981        7       0.00000000      -0.00000000      -0.00000028
Si       5.75938473       5.54197054      26.45881280        7      -0.00000000       0.00000000      -0.00000000
Si       5.75938473       1.10839411      25.67505981        7       0.00000000       0.00000000      -0.00000028
Si       7.67917964       2.21678822      26.45881280        7       0.00000000      -0.00000000      -0.00000000
Si       3.83958982       4.43357643      25.67505981        7       0.00000000       0.00000000      -0.00000028
Si       9.59897455       5.54197054      26.45881280        7      -0.00000000      -0.00000000      -0.00000000
Si       1.91979491       1.10839411      25.67505981        7       0.00000000       0.00000000      -0.00000028
Si       0.00000000       0.00000000      29.59382476        6       0.00000000       0.00000000       0.00000028
Si       3.83958982       2.21678822      28.81007177        6       0.00000000      -0.00000000       0.00000000
Si       1.91979491       3.32518233      29.59382476        6       0.00000000       0.00000000       0.00000028
Si       5.75938473       5.54197054      28.81007177        6       0.00000000       0.00000000       0.00000000
Si       3.83958982       0.00000000      29.59382476        6       0.00000000       0.00000000       0.00000028
Si       7.67917964       2.21678822      28.81007177        6      -0.00000000       0.00000000       0.00000000
Si       5.75938473       3.32518233      29.59382476        6       0.00000000      -0.00000000       0.00000028
Si       9.59897455       5.54197054      28.81007177        6      -0.00000000      -0.00000000       0.00000000
Si       7.67917964       4.43357643      32.72883672        5       0.00000000      -0.00000000      -0.00005177
Si       0.00000000       0.00000000      31.94508373        5       0.00000000      -0.00000000      -0.00000037
Si       5.75938473       1.10839411      32.72883672        5       0.00000000       0.00000000      -0.00005177
Si       1.91979491       3.32518233      31.94508373        5       0.00000000      -0.00000000      -0.00000037
Si       3.83958982       4.43357643      32.72883672        5       0.00000000       0.00000000      -0.00005177
Si       7.67917964       6.65036465      31.94508373        5      -0.00000000       0.00000000      -0.00000037
Si       1.91979491       1.10839411      32.72883672        5       0.00000000       0.00000000      -0.00005177
Si       5.75938473       3.32518233      31.94508373        5      -0.00000000       0.00000000      -0.00000037
Si       3.83958982       2.21678822      35.86384868        4      -0.00000000      -0.00000000      -0.00194183
Si       7.67917964       4.43357643      35.08009569        4       0.00000000      -0.00000000      -0.00089268
Si       5.75938473       5.54197054      35.86384868        4      -0.00000000       0.00000000      -0.00194183
Si       5.75938473       1.10839411      35.08009569        4      -0.00000000       0.00000000      -0.00089268
Si       7.67917964       2.21678822      35.86384868        4      -0.00000000       0.00000000      -0.00194183
Si       3.83958982       4.43357643      35.08009569        4       0.00000000      -0.00000000      -0.00089268
Si       9.59897455       5.54197054      35.86384868        4      -0.00000000       0.00000000      -0.00194183
Si       1.91979491       1.10839411      35.08009569        4       0.00000000      -0.00000000      -0.00089268
Si       0.00000000       0.00000000      38.99886065        3      -0.00000000       0.00000000       0.00402519
Si       3.83958982       2.21678822      38.21510766        3       0.00000000       0.00000000      -0.01073067
Si       1.91979491       3.32518233      38.99886065        3       0.00000000      -0.00000000       0.00402519
Si       5.75938473       5.54197054      38.21510766        3       0.00000000      -0.00000000      -0.01073067
Si       3.83958982       0.00000000      38.99886065        3      -0.00000000       0.00000000       0.00402519
Si       7.67917964       2.21678822      38.21510766        3      -0.00000000      -0.00000000      -0.01073067
Si       5.75938473       3.32518233      38.99886065        3       0.00000000      -0.00000000       0.00402519
Si       9.59897455       5.54197054      38.21510766        3       0.00000000      -0.00000000      -0.01073067
Si       7.67917964       4.43357643      42.13387261        2      -0.00000000       0.00000000      -0.06524359
Si       0.00000000       0.00000000      41.35011962        2       0.00000000       0.00000000      -0.01485070
Si       5.75938473       1.10839411      42.13387261        2      -0.00000000      -0.00000000      -0.06524359
Si       1.91979491       3.32518233      41.35011962        2       0.00000000       0.00000000      -0.01485070
Si       3.83958982       4.43357643      42.13387261        2      -0.00000000      -0.00000000      -0.06524359
Si       3.83958982       0.00000000      41.35011962        2      -0.00000000      -0.00000000      -0.01485070
Si       1.91979491       1.10839411      42.13387261        2      -0.00000000      -0.00000000      -0.06524359
Si       5.75938473       3.32518233      41.35011962        2       0.00000000       0.00000000      -0.01485070
Si       3.83958982       2.21678822      45.26888457        1       0.00000000       0.00000000       0.12283146
Si       7.67917964       4.43357643      44.48513158        1      -0.00000000      -0.00000000       0.11446712
Si       5.75938473       5.54197054      45.26888457        1       0.00000000       0.00000000       0.12283146
Si       5.75938473       1.10839411      44.48513158        1      -0.00000000       0.00000000       0.11446712
Si       7.67917964       2.21678822      45.26888457        1       0.00000000      -0.00000000       0.12283146
Si       3.83958982       4.43357643      44.48513158        1      -0.00000000      -0.00000000       0.11446712
Si       9.59897455       5.54197054      45.26888457        1       0.00000000      -0.00000000       0.12283146
Si       1.91979491       1.10839411      44.48513158        1      -0.00000000      -0.00000000       0.11446712
96
Lattice="5.43 0.0 0.0 0.0 5.43 0.0 0.0 0.0 87.8025" Properties=species:S:1:pos:R:3:tags:I:1:forces:R:3 config_type=slab miller=100 energy=-512.3968420799154 label_model=mpa-0 structure_key=b18c2b72367496b0419101f9e1a97c1525f8d415f7b79b305ed389e46078a2d6 pbc="T T F"
Si       1.35750000       1.35750000      13.35750000       12      -0.00000000      -0.00000000       0.13851801
Si       2.71500000       2.71500000      14.71500000       12       0.00000000       0.00000000      -0.05691596
Si       4.07250000       4.07250000      13.35750000       12      -0.00000000       0.00000000       0.13851801
Si       0.00000000       0.00000000      14.71500000       12       0.00000000       0.00000000      -0.05691596
Si       1.35750000       4.07250000      16.07250000       12      -0.00000000      -0.00000000       0.00466394
Si       2.71500000       0.00000000      12.00000000       12       0.00000000      -0.00000000      -0.30844850
Si       4.07250000       1.35750000      16.07250000       12      -0.00000000      -0.00000000       0.00466394
Si       0.00000000       2.71500000      12.00000000       12      -0.00000000       0.00000000      -0.30844850
Si       1.35750000       1.35750000      18.78750000       11      -0.00000000      -0.00000000      -0.00417746
Si       2.71500000       2.71500000      20.14500000       11       0.00000000       0.00000000       0.00062312
Si       4.07250000       4.07250000      18.78750000       11       0.00000000      -0.00000000      -0.00417746
Si       0.00000000       0.00000000      20.14500000       11      -0.00000000       0.00000000       0.00062312
Si       1.35750000       4.07250000      21.50250000       11      -0.00000000      -0.00000000      -0.00027168
Si       2.71500000       0.00000000      17.43000000       11       0.00000000      -0.00000000       0.05578913
Si       4.07250000       1.35750000      21.50250000       11      -0.00000000      -0.00000000      -0.00027168
Si       0.00000000       2.71500000      17.43000000       11       0.00000000       0.00000000       0.05578913
Si       1.35750000       1.35750000      24.21750000       10      -0.00000000      -0.00000000      -0.00018536
Si       2.71500000       2.71500000      25.57500000       10       0.00000000       0.00000000       0.00001324
Si       4.07250000       4.07250000      24.21750000       10       0.00000000      -0.00000000      -0.00018536
Si       0.00000000       0.00000000      25.57500000       10      -0.00000000       0.00000000       0.00001324
Si       1.35750000       4.07250000      26.93250000       10      -0.00000000      -0.00000000       0.00006052
Si       2.71500000       0.00000000      22.86000000       10       0.00000000      -0.00000000      -0.00011309
Si       4.07250000       1.35750000      26.93250000       10      -0.00000000      -0.00000000       0.00006052
Si       0.00000000       2.71500000      22.86000000       10      -0.00000000       0.00000000      -0.00011309
Si       1.35750000       1.35750000      29.64750000        9      -0.00000000      -0.00000000      -0.00000127
Si       2.71500000       2.71500000      31.00500000        9       0.00000000       0.00000000      -0.00000032
Si       4.07250000       4.07250000      29.64750000        9      -0.00000000      -0.00000000      -0.00000127
Si       0.00000000       0.00000000      31.00500000        9      -0.00000000      -0.00000000      -0.00000032
Si       1.35750000       4.07250000      32.36250000        9      -0.00000000      -0.00000000      -0.00000001
Si       2.71500000       0.00000000      28.29000000        9       0.00000000      -0.00000000      -0.00000247
Si       4.07250000       1.35750000      32.36250000        9      -0.00000000      -0.00000000      -0.00000001
Si       0.00000000       2.71500000      28.29000000        9      -0.00000000       0.00000000      -0.00000247
Si       1.35750000       1.35750000      35.07750000        8      -0.00000000      -0.00000000      -0.00000000
Si       2.71500000       2.71500000      36.43500000        8       0.00000000       0.00000000      -0.00000000
Si       4.07250000       4.07250000      35.07750000        8      -0.00000000      -0.00000000      -0.00000000
Si       0.00000000       0.00000000      36.43500000        8       0.00000000       0.00000000      -0.00000000
Si       1.35750000       4.07250000      37.79250000        8      -0.00000000      -0.00000000       0.00000000
Si       2.71500000       0.00000000      33.72000000        8       0.00000000      -0.00000000       0.00000000
Si       4.07250000       1.35750000      37.79250000        8      -0.00000000      -0.00000000       0.00000000
Si       0.00000000       2.71500000      33.72000000        8       0.00000000       0.00000000       0.00000000
Si       1.35750000       1.35750000      40.50750000        7       0.00000000      -0.00000000      -0.00000000
Si       2.71500000       2.71500000      41.86500000        7       0.00000000       0.00000000       0.00000000
Si       4.07250000       4.07250000      40.50750000        7      -0.00000000      -0.00000000      -0.00000000
Si       0.00000000       0.00000000      41.86500000        7      -0.00000000       0.00000000       0.00000000
Si       1.35750000       4.07250000      43.22250000        7      -0.00000000      -0.00000000       0.00000000
Si       2.71500000       0.00000000      39.15000000        7       0.00000000      -0.00000000       0.00000000
Si       4.07250000       1.35750000      43.22250000        7      -0.00000000      -0.00000000       0.00000000
Si       0.00000000       2.71500000      39.15000000        7       0.00000000       0.00000000       0.00000000
Si       1.35750000       1.35750000      45.93750000        6      -0.00000000      -0.00000000      -0.00000000
Si       2.71500000       2.71500000      47.29500000        6       0.00000000       0.00000000       0.00000000
Si       4.07250000       4.07250000      45.93750000        6      -0.00000000      -0.00000000      -0.00000000
Si       0.00000000       0.00000000      47.29500000        6      -0.00000000      -0.00000000       0.00000000
Si       1.35750000       4.07250000      48.65250000        6      -0.00000000      -0.00000000       0.00000000
Si       2.71500000       0.00000000      44.58000000        6       0.00000000      -0.00000000      -0.00000000
Si       4.07250000       1.35750000      48.65250000        6      -0.00000000      -0.00000000       0.00000000
Si       0.00000000       2.71500000      44.58000000        6      -0.00000000       0.00000000      -0.00000000
Si       1.35750000       1.35750000      51.36750000        5      -0.00000000      -0.00000000      -0.00000000
Si       2.71500000       2.71500000      52.72500000        5       0.00000000       0.00000000       0.00000000
Si       4.07250000       4.07250000      51.36750000        5      -0.00000000      -0.00000000      -0.00000000
Si       0.00000000       0.00000000      52.72500000        5      -0.00000000       0.00000000       0.00000000
Si       1.35750000       4.07250000      54.08250000        5      -0.00000000      -0.00000000      -0.00000000
Si       2.71500000       0.00000000      50.01000000        5       0.00000000       0.00000000      -0.00000000
Si       4.07250000       1.35750000      54.08250000        5      -0.00000000      -0.00000000      -0.00000000
Si       0.00000000       2.71500000      50.01000000        5      -0.00000000       0.00000000      -0.00000000
Si       1.35750000       1.35750000      56.79750000        4       0.00000000       0.00000000       0.00000032
Si       2.71500000       2.71500000      58.15500000        4       0.00000000       0.00000000       0.00000127
Si       4.07250000       4.07250000      56.79750000        4      -0.00000000       0.00000000       0.00000032
Si       0.00000000       0.00000000      58.15500000        4      -0.00000000       0.00000000       0.00000127
Si       1.35750000       4.07250000      59.51250000        4      -0.00000000      -0.00000000       0.00000247
Si       2.71500000       0.00000000      55.44000000        4       0.00000000      -0.00000000       0.00000001
Si       4.07250000       1.35750000      59.51250000        4      -0.00000000      -0.00000000       0.00000247
Si       0.00000000       2.71500000      55.44000000        4       0.00000000       0.00000000       0.00000001
Si       1.35750000       1.35750000      62.22750000        3       0.00000000      -0.00000000      -0.00001324
Si       2.71500000       2.71500000      63.58500000        3       0.00000000       0.00000000       0.00018536
Si       4.07250000       4.07250000      62.22750000        3      -0.00000000      -0.00000000      -0.00001324
Si       0.00000000       0.00000000      63.58500000        3      -0.00000000       0.00000000       0.00018536
Si       1.35750000       4.07250000      64.94250000        3      -0.00000000      -0.00000000       0.00011309
Si       2.71500000       0.00000000      60.87000000        3       0.00000000       0.00000000      -0.00006052
Si       4.07250000       1.35750000      64.94250000        3      -0.00000000      -0.00000000       0.00011309
Si       0.00000000       2.71500000      60.87000000        3      -0.00000000       0.00000000      -0.00006052
Si       1.35750000       1.35750000      67.65750000        2      -0.00000000      -0.00000000      -0.00062312
Si       2.71500000       2.71500000      69.01500000        2       0.00000000       0.00000000       0.00417746
Si       4.07250000       4.07250000      67.65750000        2      -0.00000000      -0.00000000      -0.00062312
Si       0.00000000       0.00000000      69.01500000        2       0.00000000      -0.00000000       0.00417746
Si       1.35750000       4.07250000      70.37250000        2      -0.00000000      -0.00000000      -0.05578913
Si       2.71500000       0.00000000      66.30000000        2       0.00000000      -0.00000000       0.00027168
Si       4.07250000       1.35750000      70.37250000        2      -0.00000000      -0.00000000      -0.05578913
Si       0.00000000       2.71500000      66.30000000        2       0.00000000       0.00000000       0.00027168
Si       1.35750000       1.35750000      73.08750000        1      -0.00000000      -0.00000000       0.05691596
Si       2.71500000       2.71500000      74.44500000        1       0.00000000       0.00000000      -0.13851801
Si       4.07250000       4.07250000      73.08750000        1       0.00000000       0.00000000       0.05691596
Si       0.00000000       0.00000000      74.44500000        1      -0.00000000       0.00000000      -0.13851801
Si       1.35750000       4.07250000      75.80250000        1      -0.00000000      -0.00000000       0.30844850
Si       2.71500000       0.00000000      71.73000000        1       0.00000000      -0.00000000      -0.00466394
Si       4.07250000       1.35750000      75.80250000        1       0.00000000      -0.00000000       0.30844850
Si       0.00000000       2.71500000      71.73000000        1       0.00000000       0.00000000      -0.00466394
96
Lattice="7.679179643685906 0.0 0.0 0.0 5.43 0.0 0.0 0.0 68.15528295119397" Properties=species:S:1:pos:R:3:tags:I:1:forces:R:3 config_type=slab miller=110 energy=-512.602613666309 label_model=mpa-0 structure_key=f4d4d90b4fe0dfca39cb4b196b30c039c08bd014ed99faf5edb89d8bd5847fa1 pbc="T T F"
Si       7.67917964       4.07250000      13.91979491       12       0.00000000      -0.01540587      -0.14817580
Si       3.83958982       2.71500000      12.00000000       12      -0.00000000      -0.29184200      -0.02076463
Si       1.91979491       1.35750000      12.00000000       12      -0.00000000       0.29184200      -0.02076463
Si       1.91979491       0.00000000      13.91979491       12       0.00000000       0.01540587      -0.14817580
Si       5.75938473       1.35750000      12.00000000       12       0.00000000       0.29184200      -0.02076463
Si       5.75938473       0.00000000      13.91979491       12      -0.00000000       0.01540587      -0.14817580
Si       3.83958982       4.07250000      13.91979491       12      -0.00000000      -0.01540587      -0.14817580
Si       0.00000000       2.71500000      12.00000000       12      -0.00000000      -0.29184200      -0.02076463
Si       3.83958982       4.07250000      17.75938473       11       0.00000000      -0.01199832       0.01266924
Si       7.67917964       2.71500000      15.83958982       11      -0.00000000       0.01591802       0.03033708
Si       5.75938473       1.35750000      15.83958982       11      -0.00000000      -0.01591802       0.03033708
Si       5.75938473       0.00000000      17.75938473       11       0.00000000       0.01199832       0.01266924
Si       1.91979491       1.35750000      15.83958982       11       0.00000000      -0.01591802       0.03033708
Si       1.91979491       0.00000000      17.75938473       11      -0.00000000       0.01199832       0.01266924
Si       7.67917964       4.07250000      17.75938473       11       0.00000000      -0.01199832       0.01266924
Si       3.83958982       2.71500000      15.83958982       11      -0.00000000       0.01591802       0.03033708
Si       7.67917964       4.07250000      21.59897455       10      -0.00000000      -0.00070815       0.00018851
Si       3.83958982       2.71500000      19.67917964       10      -0.00000000       0.00125575       0.00509857
Si       1.91979491       1.35750000      19.67917964       10       0.00000000      -0.00125575       0.00509857
Si       1.91979491       0.00000000      21.59897455       10      -0.00000000       0.00070815       0.00018851
Si       5.75938473       1.35750000      19.67917964       10      -0.00000000      -0.00125575       0.00509857
Si       5.75938473       0.00000000      21.59897455       10       0.00000000       0.00070815       0.00018851
Si       3.83958982       4.07250000      21.59897455       10      -0.00000000      -0.00070815       0.00018851
Si       7.67917964       2.71500000      19.67917964       10      -0.00000000       0.00125575       0.00509857
Si       3.83958982       4.07250000      25.43856438        9      -0.00000000      -0.00000784      -0.00002463
Si       7.67917964       2.71500000      23.51876947        9      -0.00000000       0.00001150       0.00014923
Si       5.75938473       1.35750000      23.51876947        9       0.00000000      -0.00001150       0.00014923
Si       5.75938473       0.00000000      25.43856438        9      -0.00000000       0.00000784      -0.00002463
Si       1.91979491       1.35750000      23.51876947        9      -0.00000000      -0.00001150       0.00014923
Si       1.91979491       0.00000000      25.43856438        9      -0.00000000       0.00000784      -0.00002463
Si       7.67917964       4.07250000      25.43856438        9       0.00000000      -0.00000784      -0.00002463
Si       3.83958982       2.71500000      23.51876947        9       0.00000000       0.00001150       0.00014923
Si       0.00000000       4.07250000      29.27815420        8      -0.00000000      -0.00000000      -0.00000002
Si       3.83958982       2.71500000      27.35835929        8       0.00000000       0.00000059      -0.00000260
Si       1.91979491       1.35750000      27.35835929        8      -0.00000000      -0.00000059      -0.00000260
Si       1.91979491       0.00000000      29.27815420        8      -0.00000000       0.00000000      -0.00000002
Si       5.75938473       1.35750000      27.35835929        8      -0.00000000      -0.00000059      -0.00000260
Si       5.75938473       0.00000000      29.27815420        8      -0.00000000       0.00000000      -0.00000002
Si       3.83958982       4.07250000      29.27815420        8       0.00000000      -0.00000000      -0.00000002
Si       7.67917964       2.71500000      27.35835929        8       0.00000000       0.00000059      -0.00000260
Si       3.83958982       4.07250000      33.11774402        7      -0.00000000      -0.00000000       0.00000000
Si       0.00000000       2.71500000      31.19794911        7       0.00000000       0.00000000      -0.00000000
Si       5.75938473       1.35750000      31.19794911        7      -0.00000000      -0.00000000      -0.00000000
Si       5.75938473       0.00000000      33.11774402        7      -0.00000000       0.00000000       0.00000000
Si       1.91979491       1.35750000      31.19794911        7      -0.00000000      -0.00000000      -0.00000000
Si       1.91979491       0.00000000      33.11774402        7      -0.00000000       0.00000000       0.00000000
Si       7.67917964       4.07250000      33.11774402        7       0.00000000      -0.00000000       0.00000000
Si       3.83958982       2.71500000      31.19794911        7       0.00000000       0.00000000      -0.00000000
Si       0.00000000       4.07250000      36.95733384        6      -0.00000000      -0.00000000       0.00000000
Si       3.83958982       2.71500000      35.03753893        6      -0.00000000      -0.00000000      -0.00000000
Si       1.91979491       1.35750000      35.03753893        6      -0.00000000       0.00000000      -0.00000000
Si       1.91979491       0.00000000      36.95733384        6      -0.00000000       0.00000000       0.00000000
Si       5.75938473       1.35750000      35.03753893        6      -0.00000000      -0.00000000      -0.00000000
Si       5.75938473       0.00000000      36.95733384        6       0.00000000       0.00000000       0.00000000
Si       3.83958982       4.07250000      36.95733384        6       0.00000000      -0.00000000       0.00000000
Si       7.67917964       2.71500000      35.03753893        6       0.00000000      -0.00000000      -0.00000000
Si       3.83958982       4.07250000      40.79692366        5      -0.00000000      -0.00000059       0.00000260
Si       0.00000000       2.71500000      38.87712875        5      -0.00000000       0.00000000       0.00000002
Si       5.75938473       1.35750000      38.87712875        5      -0.00000000      -0.00000000       0.00000002
Si       5.75938473       0.00000000      40.79692366        5       0.00000000       0.00000059       0.00000260
Si       1.91979491       1.35750000      38.87712875        5       0.00000000      -0.00000000       0.00000002
Si       1.91979491       0.00000000      40.79692366        5      -0.00000000       0.00000059       0.00000260
Si       7.67917964       4.07250000      40.79692366        5       0.00000000      -0.00000059       0.00000260
Si       3.83958982       2.71500000      38.87712875        5       0.00000000       0.00000000       0.00000002
Si       0.00000000       4.07250000      44.63651349        4      -0.00000000      -0.00001150      -0.00014923
Si       3.83958982       2.71500000      42.71671857        4      -0.00000000       0.00000784       0.00002463
Si       1.91979491       1.35750000      42.71671857        4      -0.00000000      -0.00000784       0.00002463
Si       1.91979491       0.00000000      44.63651349        4       0.00000000       0.00001150      -0.00014923
Si       5.75938473       1.35750000      42.71671857        4       0.00000000      -0.00000784       0.00002463
Si       5.75938473       0.00000000      44.63651349        4       0.00000000       0.00001150      -0.00014923
Si       3.83958982       4.07250000      44.63651349        4      -0.00000000      -0.00001150      -0.00014923
Si       7.67917964       2.71500000      42.71671857        4      -0.00000000       0.00000784       0.00002463
Si       3.83958982       4.07250000      48.47610331        3      -0.00000000      -0.00125575      -0.00509857
Si       0.00000000       2.71500000      46.55630840        3      -0.00000000       0.00070815      -0.00018851
Si       5.75938473       1.35750000      46.55630840        3      -0.00000000      -0.00070815      -0.00018851
Si       5.75938473       0.00000000      48.47610331        3       0.00000000       0.00125575      -0.00509857
Si       1.91979491       1.35750000      46.55630840        3      -0.00000000      -0.00070815      -0.00018851
Si       1.91979491       0.00000000      48.47610331        3       0.00000000       0.00125575      -0.00509857
Si       0.00000000       4.07250000      48.47610331        3      -0.00000000      -0.00125575      -0.00509857
Si       3.83958982       2.71500000      46.55630840        3       0.00000000       0.00070815      -0.00018851
Si       0.00000000       4.07250000      52.31569313        2      -0.00000000      -0.01591802      -0.03033708
Si       3.83958982       2.71500000      50.39589822        2      -0.00000000       0.01199832      -0.01266924
Si       1.91979491       1.35750000      50.39589822        2      -0.00000000      -0.01199832      -0.01266924
Si       1.91979491       0.00000000      52.31569313        2       0.00000000       0.01591802      -0.03033708
Si       5.75938473       1.35750000      50.39589822        2       0.00000000      -0.01199832      -0.01266924
Si       5.75938473       0.00000000      52.31569313        2       0.00000000       0.01591802      -0.03033708
Si       3.83958982       4.07250000      52.31569313        2      -0.00000000      -0.01591802      -0.03033708
Si       7.67917964       2.71500000      50.39589822        2       0.00000000       0.01199832      -0.01266924
Si       3.83958982       4.07250000      56.15528295        1      -0.00000000       0.29184200       0.02076463
Si       7.67917964       2.71500000      54.23548804        1       0.00000000       0.01540587       0.14817580
Si       5.75938473       1.35750000      54.23548804        1      -0.00000000      -0.01540587       0.14817580
Si       5.75938473       0.00000000      56.15528295        1       0.00000000      -0.29184200       0.02076463
Si       1.91979491       1.35750000      54.23548804        1       0.00000000      -0.01540587       0.14817580
Si       1.91979491       0.00000000      56.15528295        1       0.00000000      -0.29184200       0.02076463
Si       7.67917964       4.07250000      56.15528295        1       0.00000000       0.29184200       0.02076463
Si       3.83958982       2.71500000      54.23548804        1      -0.00000000       0.01540587       0.14817580
96
Lattice="7.679179643685906 0.0 0.0 3.8395898218429525 6.650364651656329 0.0 0.0 0.0 59.26888456912127" Properties=species:S:1:pos:R:3:tags:I:1:forces:R:3 config_type=slab miller=111 energy=-512.3210260585328 label_model=mpa-0 structure_key=5cdb959b63da38003588c60f2d3b392a073cad7f3162b80f850fb0d6a2c32a88 pbc="T T F"
Si       0.00000000       0.00000000      12.78375299       12      -0.00000000       0.00000000      -0.11446712
Si       3.83958982       2.21678822      12.00000000       12       0.00000000      -0.00000000      -0.12283146
Si       1.91979491       3.32518233      12.78375299       12      -0.00000000      -0.00000000      -0.11446712
Si       5.75938473       5.54197054      12.00000000       12      -0.00000000      -0.00000000      -0.12283146
Si       3.83958982       0.00000000      12.78375299       12      -0.00000000      -0.00000000      -0.11446712
Si       7.67917964       2.21678822      12.00000000       12       0.00000000       0.00000000      -0.12283146
Si       5.75938473       3.32518233      12.78375299       12       0.00000000      -0.00000000      -0.11446712
Si       9.59897455       5.54197054      12.00000000       12       0.00000000       0.00000000      -0.12283146
Si       7.67917964       4.43357643      15.91876495       11      -0.00000000      -0.00000000       0.01485070
Si       0.00000000       0.00000000      15.13501196       11       0.00000000      -0.00000000       0.06524359
Si       5.75938473       1.10839411      15.91876495       11      -0.00000000       0.00000000       0.01485070
Si       1.91979491       3.32518233      15.13501196       11       0.00000000       0.00000000       0.06524359
Si       3.83958982       4.43357643      15.91876495       11       0.00000000      -0.00000000       0.01485070
Si       7.67917964       6.65036465      15.13501196       11       0.00000000       0.00000000       0.06524359
Si       1.91979491       1.10839411      15.91876495       11      -0.00000000       0.00000000       0.01485070
Si       5.75938473       3.32518233      15.13501196       11       0.00000000       0.00000000       0.06524359
Si       3.83958982       2.21678822      19.05377691       10      -0.00000000       0.00000000       0.01073067
Si       7.67917964       4.43357643      18.27002392       10       0.00000000      -0.00000000      -0.00402519
Si       5.75938473       5.54197054      19.05377691       10      -0.00000000       0.00000000       0.01073067
Si       5.75938473       1.10839411      18.27002392       10       0.00000000      -0.00000000      -0.00402519
Si       7.67917964       2.21678822      19.05377691       10       0.00000000      -0.00000000       0.01073067
Si       3.83958982       4.43357643      18.27002392       10       0.00000000       0.00000000      -0.00402519
Si       9.59897455       5.54197054      19.05377691       10       0.00000000      -0.00000000       0.01073067
Si       1.91979491       1.10839411      18.27002392       10       0.00000000      -0.00000000      -0.00402519
Si       0.00000000       0.00000000      22.18878888        9      -0.00000000       0.00000000       0.00089268
Si       3.83958982       2.21678822      21.40503589        9       0.00000000       0.00000000       0.00194183
Si       1.91979491       3.32518233      22.18878888        9      -0.00000000       0.00000000       0.00089268
Si       5.75938473       5.54197054      21.40503589        9       0.00000000      -0.00000000       0.00194183
Si       3.83958982       0.00000000      22.18878888        9       0.00000000       0.00000000       0.00089268
Si       7.67917964       2.21678822      21.40503589        9      -0.00000000       0.00000000       0.00194183
Si       5.75938473       3.32518233      22.18878888        9       0.00000000      -0.00000000       0.00089268
Si       9.59897455       5.54197054      21.40503589        9       0.00000000       0.00000000       0.00194183
Si       7.67917964       4.43357643      25.32380084        8      -0.00000000       0.00000000       0.00000037
Si       0.00000000       0.00000000      24.54004785        8       0.00000000      -0.00000000       0.00005177
Si       5.75938473       1.10839411      25.32380084        8      -0.00000000       0.00000000       0.00000037
Si       1.91979491       3.32518233      24.54004785        8       0.00000000      -0.00000000       0.00005177
Si       3.83958982       4.43357643      25.32380084        8      -0.00000000      -0.00000000       0.00000037
Si       3.83958982       0.00000000      24.54004785        8       0.00000000      -0.00000000       0.00005177
Si       1.91979491       1.10839411      25.32380084        8      -0.00000000      -0.00000000       0.00000037
Si       5.75938473       3.32518233      24.54004785        8       0.00000000       0.00000000       0.00005177
Si       3.83958982       2.21678822      28.45881280        7      -0.00000000       0.00000000      -0.00000000
Si       7.67917964       4.43357643      27.67505981        7       0.00000000      -0.00000000      -0.00000028
Si       5.75938473       5.54197054      28.45881280        7      -0.00000000       0.00000000      -0.00000000
Si       5.75938473       1.10839411      27.67505981        7       0.00000000       0.00000000      -0.00000028
Si       7.67917964       2.21678822      28.45881280        7       0.00000000      -0.00000000      -0.00000000
Si       3.83958982       4.43357643      27.67505981        7       0.00000000       0.00000000      -0.00000028
Si       9.59897455       5.54197054      28.45881280        7      -0.00000000      -0.00000000      -0.00000000
Si       1.91979491       1.10839411      27.67505981        7       0.00000000       0.00000000      -0.00000028
Si       0.00000000       0.00000000      31.59382476        6       0.00000000       0.00000000       0.00000028
Si       3.83958982       2.21678822      30.81007177        6      -0.00000000      -0.00000000       0.00000000
Si       1.91979491       3.32518233      31.59382476        6       0.00000000       0.00000000       0.00000028
Si       5.75938473       5.54197054      30.81007177        6       0.00000000       0.00000000       0.00000000
Si       3.83958982       0.00000000      31.59382476        6       0.00000000       0.00000000       0.00000028
Si       7.67917964       2.21678822      30.81007177        6      -0.00000000       0.00000000       0.00000000
Si       5.75938473       3.32518233      31.59382476        6       0.00000000      -0.00000000       0.00000028
Si       9.59897455       5.54197054      30.81007177        6      -0.00000000      -0.00000000       0.00000000
Si       7.67917964       4.43357643      34.72883672        5       0.00000000      -0.00000000      -0.00005177
Si       0.00000000       0.00000000      33.94508373        5       0.00000000      -0.00000000      -0.00000037
Si       5.75938473       1.10839411      34.72883672        5       0.00000000       0.00000000      -0.00005177
Si       1.91979491       3.32518233      33.94508373        5       0.00000000      -0.00000000      -0.00000037
Si       3.83958982       4.43357643      34.72883672        5       0.00000000       0.00000000      -0.00005177
Si       7.67917964       6.65036465      33.94508373        5      -0.00000000       0.00000000      -0.00000037
Si       1.91979491       1.10839411      34.72883672        5       0.00000000       0.00000000      -0.00005177
Si       5.75938473       3.32518233      33.94508373        5      -0.00000000       0.00000000      -0.00000037
Si       3.83958982       2.21678822      37.86384868        4      -0.00000000      -0.00000000      -0.00194183
Si       7.67917964       4.43357643      37.08009569        4       0.00000000      -0.00000000      -0.00089268
Si       5.75938473       5.54197054      37.86384868        4      -0.00000000       0.00000000      -0.00194183
Si       5.75938473       1.10839411      37.08009569        4      -0.00000000       0.00000000      -0.00089268
Si       7.67917964       2.21678822      37.86384868        4      -0.00000000       0.00000000      -0.00194183
Si       3.83958982       4.43357643      37.08009569        4       0.00000000      -0.00000000      -0.00089268
Si       9.59897455       5.54197054      37.86384868        4      -0.00000000       0.00000000      -0.00194183
Si       1.91979491       1.10839411      37.08009569        4       0.00000000      -0.00000000      -0.00089268
Si       0.00000000       0.00000000      40.99886065        3      -0.00000000       0.00000000       0.00402519
Si       3.83958982       2.21678822      40.21510766        3       0.00000000       0.00000000      -0.01073067
Si       1.91979491       3.32518233      40.99886065        3       0.00000000      -0.00000000       0.00402519
Si       5.75938473       5.54197054      40.21510766        3       0.00000000      -0.00000000      -0.01073067
Si       3.83958982       0.00000000      40.99886065        3      -0.00000000       0.00000000       0.00402519
Si       7.67917964       2.21678822      40.21510766        3      -0.00000000      -0.00000000      -0.01073067
Si       5.75938473       3.32518233      40.99886065        3       0.00000000      -0.00000000       0.00402519
Si       9.59897455       5.54197054      40.21510766        3       0.00000000      -0.00000000      -0.01073067
Si       7.67917964       4.43357643      44.13387261        2      -0.00000000       0.00000000      -0.06524359
Si       0.00000000       0.00000000      43.35011962        2       0.00000000       0.00000000      -0.01485070
Si       5.75938473       1.10839411      44.13387261        2      -0.00000000      -0.00000000      -0.06524359
Si       1.91979491       3.32518233      43.35011962        2       0.00000000       0.00000000      -0.01485070
Si       3.83958982       4.43357643      44.13387261        2      -0.00000000      -0.00000000      -0.06524359
Si       3.83958982       0.00000000      43.35011962        2      -0.00000000      -0.00000000      -0.01485070
Si       1.91979491       1.10839411      44.13387261        2      -0.00000000      -0.00000000      -0.06524359
Si       5.75938473       3.32518233      43.35011962        2       0.00000000       0.00000000      -0.01485070
Si       3.83958982       2.21678822      47.26888457        1       0.00000000       0.00000000       0.12283146
Si       7.67917964       4.43357643      46.48513158        1      -0.00000000      -0.00000000       0.11446712
Si       5.75938473       5.54197054      47.26888457        1      -0.00000000       0.00000000       0.12283146
Si       5.75938473       1.10839411      46.48513158        1      -0.00000000       0.00000000       0.11446712
Si       7.67917964       2.21678822      47.26888457        1       0.00000000      -0.00000000       0.12283146
Si       3.83958982       4.43357643      46.48513158        1      -0.00000000      -0.00000000       0.11446712
Si       9.59897455       5.54197054      47.26888457        1       0.00000000      -0.00000000       0.12283146
Si       1.91979491       1.10839411      46.48513158        1      -0.00000000      -0.00000000       0.11446712
32
Lattice="5.43 0.0 0.0 0.0 5.43 0.0 0.0 0.0 32.3625" Properties=species:S:1:pos:R:3:tags:I:1:forces:R:3 config_type=slab-displaced miller=100 energy=-164.5505109186807 label_model=mpa-0 structure_key=559dd37fb87676b2bd65528463d602930893d38c9f666c8e11ea14468cb55c5e pbc="T T F"
Si       1.32531416       1.29490898       7.32930427        4       0.35578278       1.81018723       0.07846878
Si       2.73157193       2.77519537       8.73554570        4      -0.34174758      -0.75000218      -0.35101881
Si       4.15641212       4.02120179       7.35641189        4      -0.81576430       0.61039269       0.34876202
Si       0.02652401       0.02880025       8.63728496        4      -0.38991070      -0.74467057       1.28888998
Si       1.36425480       4.04134213      10.14388075        4      -0.10461692       0.79927934      -0.70239449
Si       2.59219203      -0.08146811       6.08301669        4       0.33486354      -0.95242438      -0.67003419
Si       4.05727873       1.32977826      10.04896083        4       0.11816252      -0.00593251       0.26286874
Si      -0.04083784       2.77319275       5.94636368        4       1.06094718      -0.50648743      -0.52521650
Si       1.37791498       1.36564944      12.86625215        3      -0.52524095      -0.47953881      -1.16169494
Si       2.62603607       2.68412158      14.16133595        3       1.13889980       0.51080822       0.43623722
Si       3.98962859       4.01766056      12.71670427        3       1.27637749      -0.12703601       1.91585432
Si       0.07054910       0.02030554      14.20004267        3      -1.25925030      -0.68561226      -0.22180195
Si       1.32084222       3.99357483      15.56716233        3       0.80084381       1.28217201      -0.75287917
Si       2.74220569      -0.06034694      11.50987507        3      -0.83569426       1.31999525      -0.99361565
Si       4.05182328       1.38601300      15.55821203        3       0.44165277       0.12591462      -0.79297512
Si      -0.00486776       2.73559713      11.43434739        3      -0.11922123      -0.95601094       0.15173043
Si       1.26659973       1.27632879      18.26885995        2       1.35765974       1.77668840      -1.22058181
Si       2.76811921       2.70159574      19.61106536        2      -1.23403376      -0.13084195      -1.11794047
Si       3.99094535       3.99775518      18.16759485        2       0.27562160       1.24126634       0.36147588
Si      -0.03351433       0.03046261      19.50277737        2      -1.08168856      -1.50332669       1.52668064
Si       1.47290355       4.07267863      20.91499713        2      -1.37696950       0.23220219      -0.36247153
Si       2.71069827       0.03957047      16.82339269        2      -0.62277925      -0.63356033       0.63552081
Si       4.01716471       1.43880015      20.93507177        2       0.89342216      -1.44133729       0.33145875
Si      -0.02987811       2.80157577      16.85516432        2      -0.09776891      -1.61666043       0.81400052
Si       1.29285596       1.33591083      23.66101249        1       0.24040522       0.23688670      -0.07426492
Si       2.73405468       2.62444908      25.00689792        1      -0.38962757       1.00641658      -0.56451063
Si       4.06915033       4.11698845      23.59558792        1      -0.34378768      -0.95119876      -0.05924854
Si       0.00312174      -0.07189286      24.93281504        1      -0.38104781       0.55683342       0.77150034
Si       1.32683475       4.09103911      26.36485715        1       0.29907003      -0.35848835       0.13957245
Si       2.65436313       0.02356650      22.29857017        1       0.55285365       0.38369617      -0.01599111
Si       4.04189044       1.39422982      26.37928848        1       0.80975916      -0.75937461       0.29771035
Si       0.03240665       2.68931074      22.23512109        1      -0.03717217       0.70976432       0.22590859
32
Lattice="5.43 0.0 0.0 0.0 5.43 0.0 0.0 0.0 32.3625" Properties=species:S:1:pos:R:3:tags:I:1:forces:R:3 config_type=slab-displaced miller=100 energy=-155.2495709656523 label_model=mpa-0 structure_key=cc58f640ac700cdece1f74def491f6db64160c588edce6d040e17c7a4bdfe5ce pbc="T T F"
Si       1.33135172       1.35559288       7.30135312        4      -0.90766278       0.79106072       1.76781487
Si       2.93428093       2.82584567       8.78791912        4      -0.87929144      -1.54674955      -1.29891834
Si       4.05333713       4.10296726       7.20664860        4       0.15671895      -0.25231122      -0.89963354
Si      -0.21053707      -0.19512667       8.84948438        4      -0.01882227       2.57178998      -1.64540244
Si       1.24847904       3.93176557       9.79634086        4       1.48442998       0.02435219       2.52160751
Si       2.58048970       0.13255954       5.97897032        4       1.22389916      -1.22555063      -0.78863845
Si       4.08434817       1.38005668      10.26221475        4      -1.69001717      -2.01408635      -1.93034130
Si       0.06662745       2.62920872       5.61843568        4      -0.41746636       0.45793534       1.09595520
Si       1.17354329       1.19920281      12.82481401        3       0.25143392       0.47136096      -2.07275082
Si       2.46197287       2.59521631      14.06121649        3       1.72977299       1.19364901       0.64626100
Si       4.10944512       4.03048949      12.80246276        3      -0.77676635      -0.48245872       1.06880263
Si      -0.08375826       0.00993187      14.28261649        3       1.77428195      -3.08234785      -5.62980683
Si       1.29623613       4.33261102      15.38305146        3       3.46571326      -2.97955244       3.20424632
Si       2.76322570      -0.14590770      11.44980329        3      -1.96588843       0.54308366      -0.39085101
Si       4.10945174       1.14037095      15.25780052        3      -3.39537147       7.43946987       2.74659774
Si      -0.13963967       2.77329497      11.32039779        3       2.87791858       0.37362089       1.79429332
Si       1.25914842       1.19493548      18.31198178        2       2.10368283       2.07800496      -1.47613284
Si       2.75366016       2.82476457      19.44334656        2      -2.30823261      -1.98974532       1.82529307
Si       4.10106534       4.06664642      18.28465683        2       1.08034003       2.04369739      -1.85809149
Si      -0.00265435       0.03720332      19.68742311        2       2.11406988      -4.50942011      -0.85364598
Si       1.24142693       3.84853148      21.11087197        2       7.26638839       7.48929203      -6.06790568
Si       2.95639525       0.34543303      16.83761068        2      -2.53136656      -3.08167496       2.25478225
Si       4.10122796       1.25896152      20.65563911        2      -2.85577107       3.63426848       3.22924761
Si       0.14439088       2.78930585      16.95985877        2      -0.74410570      -0.47473626      -1.49002186
Si       1.22012028       1.37402153      23.77620414        1       1.33451412       0.13215184      -0.40205504
Si       2.70659761       2.76696663      25.07689598        1       0.44655203      -0.16194706      -0.66026978
Si       4.36072553       3.93889924      23.63003176        1      -1.93261241       1.67010891       1.00486852
Si       0.11712430      -0.05368810      25.27730124        1      -2.25388448       2.48371113      -4.23604810
Si       1.14174798       4.00508990      26.31996491        1       2.81558018      -4.33629571       3.01654111
Si       2.85095680       0.17832517      22.39020290        1      -0.55583270      -1.69125699      -0.16950606
Si       4.13099471       1.29234014      26.32952058        1      -0.95268608       1.50364761       0.88035770
Si       0.15362347       2.73509591      22.16126914        1      -5.93951836      -7.07307180       4.81335070
32
Lattice="7.679179643685906 0.0 0.0 0.0 5.43 0.0 0.0 0.0 25.438564376450337" Properties=species:S:1:pos:R:3:tags:I:1:forces:R:3 config_type=slab-displaced miller=110 energy=-165.26437795693104 label_model=mpa-0 structure_key=a4b99e6a35561130527e4825df6a88be1374d47b1b3632d864ba92c94ae3d1c2 pbc="T T F"
Si       7.64186837       4.04228411       7.94257471        4       0.77231767       0.18244258      -0.49641305
Si       3.87226142       2.73393151       6.01277979        4      -0.24747643      -0.48550208      -0.10626520
Si       1.91030974       1.37945790       6.00896082        4       0.64141090       0.15823868      -0.28834223
Si       1.90869400       0.03983862       7.88822464        4       0.02140009      -0.63338227       0.23649591
Si       5.73701240       1.31436584       5.97997463        4       0.48116319       0.62347132      -0.19914606
Si       5.84971688       0.02218548       7.90618878        4      -1.44385839      -0.48181912      -0.04574789
Si       3.78432954       3.96231664       7.99585114        4       0.67303163       1.78893220      -1.30267142
Si       0.06429752       2.70687149       5.98975384        4      -0.90889497      -0.14507282       0.03385748
Si       3.83596735       4.13502836      11.76503961        3      -0.13991996      -0.51400375      -0.16295149
Si       7.67750725       2.71655489       9.83363877        3      -0.02978252       0.32834837       0.54248154
Si       5.79685342       1.35011609       9.81988894        3      -0.24107018       0.03888767       0.23478810
Si       5.69087791       0.04664403      11.77994943        3       0.88351818      -0.09022208      -0.15769545
Si       1.94510813       1.47142525       9.76816911        3      -0.04028966      -0.96810185       0.64830672
Si       1.89305133      -0.04524781      11.72465993        3       0.18078930       0.95907684      -0.30893563
Si       7.67650920       4.09576349      11.80587410        3      -0.66774421      -0.09847878      -0.72557574
Si       3.88337631       2.74941542       9.84785252        3       0.18302370      -0.59988085       1.02503747
Si       7.63196100       4.13691802      15.52477232        2       1.00010632      -0.30458567       0.81155946
Si       3.82335384       2.71895139      13.62280618        2       0.57253968      -0.18372039       0.05214842
Si       1.94652104       1.34965403      13.63942707        2      -0.09830506      -0.16083827       0.25039886
Si       2.03449473       0.08469826      15.66849459        2      -0.70509428      -0.85218156      -0.97303526
Si       5.83365074       1.35415520      13.69990341        2      -0.78779020       0.62717547      -0.60040861
Si       5.72204497       0.03119907      15.53324693        2       0.24801577       0.20642084       1.12432743
Si       3.91089029       4.03890142      15.53355454        2      -0.63661461       0.05622009       0.54012498
Si       7.70494981       2.71345425      13.64565147        2       0.23017567       0.07138982       0.38627129
Si       3.77661239       4.07749199      19.44455163        1       0.42241471       0.43709357       0.60586440
Si       7.69881967       2.66268073      17.54879962        1      -0.41953622       0.99213156      -0.45391318
Si       5.72910519       1.43302934      17.57979552        1       0.10642216      -0.99048183      -0.19689243
Si       5.71962439      -0.04191422      19.46447027        1       0.06913749      -0.04812387      -0.20432412
Si       1.89788160       1.36238692      17.55446735        1       0.86671270       0.10400979       0.63928229
Si       1.93772711      -0.00137714      19.51020162        1      -0.68178015      -0.00489775      -0.14511706
Si       7.65239363       4.04799525      19.45555051        1       0.24120742       0.42756864       0.00202977
Si       3.85866047       2.79177238      17.59289454        1      -0.54522974      -0.44011451      -0.76553931
32
Lattice="7.679179643685906 0.0 0.0 0.0 5.43 0.0 0.0 0.0 25.438564376450337" Properties=species:S:1:pos:R:3:tags:I:1:forces:R:3 config_type=slab-displaced miller=110 energy=-153.9045689798579 label_model=mpa-0 structure_key=5671d3bc00b2393345b36c766201ea8365b084b91d8e36e498391fa7c7233f2b pbc="T T F"
Si       7.92974256       3.96070967       8.10576323        4      -1.29333180       3.43640565      -5.07882500
Si       3.84785971       2.81270228       5.95453340        4      -1.01842028      -0.08285669       0.23933629
Si       1.72095962       1.50294852       6.23190756        4       4.84192660      -2.33363364      -0.22007503
Si       1.85902248       0.05898304       7.99150407        4       2.31212838      -0.76410726      -0.13182253
Si       5.66265930       1.43828093       5.99239168        4       1.15564937       0.36223038      -0.56390482
Si       5.84896325       0.20555842       7.89096116        4       0.84604030      -2.50736945      -0.78423294
Si       4.09057895       4.04260569       7.98506040        4      -1.16054273       2.27573587      -2.38080000
Si       0.11438230       2.71140358       6.08669145        4      -4.75249106       2.73524277      -0.26817153
Si       4.04375977       4.20386368      11.62362110        3      -8.54718933      -6.56448933       0.62693230
Si       7.58319526       2.79681683       9.69529787        3      -0.97047608      -4.17798757       5.52411464
Si       5.55489590       1.30837100       9.76163461        3       3.71247023      -1.32142662       1.84458442
Si       5.60005619      -0.14738209      11.70173500        3       7.76701637       6.61088814       0.90902028
Si       1.89844397       1.34700350       9.88433398        3       0.17867808       2.44780613      -1.30749219
Si       1.92604800      -0.07113051      11.54472544        3      -0.52109456      -0.70744472       2.91634737
Si       7.50086501       3.99372445      11.79658232        3       1.31188100       1.26850356      -2.59852574
Si       4.04148935       2.72627912       9.69271659        3      -3.98322557       1.01431922       2.48887513
Si       7.69468882       4.12643264      15.58104438        2       0.18802614       0.25829047       1.14721729
Si       3.74959575       2.47539898      13.76619547        2       3.54648379       2.87716137      -0.10430581
Si       1.81279879       1.60907791      13.61495827        2      -1.63867861      -3.21205878      -0.50472859
Si       2.09255574      -0.03310103      15.62150312        2      -7.06919940       5.26007624      -0.86426479
Si       5.99762730       1.19635177      13.83755029        2      -1.10599643       5.05875288      -8.48226439
Si       5.82209647       0.14761113      15.40929114        2      -1.58916868      -5.33308844       9.16298737
Si       3.65869903       4.25136485      15.72400234        2       7.35526840      -5.57712328      -0.43281202
Si       7.54955959       2.90248456      13.67319771        2       0.28218354      -1.48195769       1.02447681
Si       3.78851239       3.85994899      19.32199880        1       0.81681686       2.29482579       2.60181020
Si       7.69116134       2.65615420      17.56428026        1      -1.56955393       0.55575949      -1.00448976
Si       5.66223223       1.37989466      17.69607282        1       2.11661772      -2.21111726      -0.54539580
Si       5.64160858      -0.07350552      19.76975054        1       0.38635238      -0.45864804      -1.02890798
Si       1.91456181       1.50338625      17.49154084        1      -0.05259291      -2.87489092       0.37896815
Si       1.93586012      -0.27848018      19.35177007        1      -0.84476198       0.86635238      -0.69135724
Si       7.64004042       3.84653357      19.48195192        1      -0.37875087       1.50432752       0.91449937
Si       3.84062817       2.58096437      17.63317748        1      -0.32206495       0.78152181      -2.78679347
32
Lattice="7.679179643685906 0.0 0.0 3.8395898218429525 6.650364651656329 0.0 0.0 0.0 22.18878887552392" Properties=species:S:1:pos:R:3:tags:I:1:forces:R:3 config_type=slab-displaced miller=111 energy=-164.85580317308995 label_model=mpa-0 structure_key=0ead4bdc1ce860b0b4384784bc4967ab7695fc5f378a41af38f3690a4a185795 pbc="T T F"
Si       3.74777938       6.68655919       6.76331089        4       0.00767873      -0.14036202       0.09412860
Si       3.80302499       2.26412853       5.97895400        4       1.22853251      -0.91971501      -0.56252141
Si       2.01778723       3.25957953       6.80715967        4      -1.55280442       1.06808112      -0.07741127
Si       5.67666029       5.60980412       5.99658068        4       0.40485775      -0.44456011       0.04269962
Si       7.66667821       6.66898995       6.78826570        4      -0.30400553       0.17550343      -0.20703058
Si       7.68374521       2.22729976       5.98619210        4       0.06878047       0.33356467      -0.03506198
Si       5.73975220       3.32206752       6.79371149        4       0.02941622       0.40115890      -0.56557520
Si       9.54459723       5.54375670       5.93354444        4       0.08580523      -0.42510608       0.11642680
Si       7.65161206       4.43188578       9.80856474        3       0.31077130       0.61624319       0.95168485
Si       3.88769657       6.61584659       9.13233926        3      -1.26247615       0.84416910      -0.30025386
Si       5.71536541       1.15779497       9.93812922        3       0.35525271      -0.17855398      -0.99252645
Si       1.87885223       3.28066742       9.13140460        3       0.45288212       1.02028170      -0.10699959
Si       3.83216089       4.50375047       9.90593849        3      -0.43336728      -1.18730093       0.28992739
Si       7.57161189       6.74961329       9.15582897        3       1.07007518      -0.76090972      -0.29539125
Si       1.85493520       1.13826585       9.85615256        3       0.03421220       0.00236154       1.01876524
Si       5.73942481       3.40613336       9.11878482        3      -0.34709190      -0.64853357       0.09312536
Si       3.85412408       2.24585913      13.13571224        2       0.04544864      -1.02684610      -0.80039898
Si       7.67394110       4.39081169      12.27507615        2       0.02064196       1.81105791      -1.13534223
Si       5.73346230       5.56835032      12.95697573        2       0.12550241      -0.15808954       0.68734361
Si       5.72311174       1.07518620      12.19775204        2       0.39887381       0.96029437       1.05273970
Si       7.65764579       2.35401076      13.07989409        2       0.03930785      -2.41196037       0.03407379
Si       3.85623178       4.32582179      12.25718497        2      -0.26465915       1.35720879      -0.20500639
Si       9.60793920       5.57562759      13.00254978        2       0.10365363      -0.73980806       0.62028578
Si       1.95549173       1.14755255      12.23716632        2      -0.58924057       0.35150797       0.13663432
Si       3.86386473       6.68954090      16.12160662        1      -0.36782533      -0.13273528       0.37632820
Si       3.88350840       2.21128579      15.41078139        1      -1.13039709       0.05037304       0.75057004
Si       1.84694326       3.37451079      16.22261641        1       1.13521725      -0.35225467       0.16013814
Si       5.71840383       5.53386901      15.42467541        1       0.57366065       0.06438214      -0.54796513
Si       7.64592175       6.68035877      16.28279730        1      -0.01935857      -0.19489137      -0.10287261
Si       7.69633393       2.24663502      15.44037304        1      -0.66740254       0.19929027      -0.16622343
Si       5.70117422       3.32436369      16.20213716        1       0.69167913       0.13453843       0.29611922
Si       9.59116919       5.56721634      15.47903058        1      -0.24362121       0.33161026      -0.62041029
32
Lattice="7.679179643685906 0.0 0.0 3.8395898218429525 6.650364651656329 0.0 0.0 0.0 22.18878887552392" Properties=species:S:1:pos:R:3:tags:I:1:forces:R:3 config_type=slab-displaced miller=111 energy=-158.41672311251293 label_model=mpa-0 structure_key=e33277a94e1daed858bdf1b40a042c2a3286456c50de111be2aa2fb04e2c9cf6 pbc="T T F"
Si       3.87139914       6.66349252       6.96399620        4      -0.80489462      -2.23967006      -0.80799645
Si       3.71016915       2.33536928       6.10668430        4       1.28419469      -0.54014536       0.37459268
Si       1.84425979       3.44550476       6.84643247        4      -1.02735815      -0.67472383      -0.26644687
Si       5.60074648       5.77493143       5.73717086        4       1.64903751      -1.20458573       1.02687932
Si       7.74729087       6.66080759       6.87213320        4      -0.91939090       0.30360315      -2.02645334
Si       7.63757278       1.96417910       6.05706995        4      -0.46328866       4.24899639      -0.49973408
Si       5.68889798       3.50703285       6.96543158        4       0.18727135      -0.30198311      -3.83180072
Si       9.60247990       5.57760562       5.83858549        4       0.10167788       0.34265023       0.46065782
Si       7.52326315       4.39137613       9.97122062        3       2.15791044       1.94592498       0.75010017
Si       3.71040231       6.70357326       9.14207830        3       2.57234809      -0.81841345       1.92478966
Si       5.85510391       1.18312409      10.00033980        3      -1.30963133       0.49041509      -1.56797313
Si       1.73595170       3.25699747       9.20433461        3       1.14035519       3.82673188      -1.34272079
Si       4.15928974       4.40466024       9.88364639        3      -6.10415508       2.82888707       1.54119860
Si       7.82264625       6.69168136       9.11880343        3      -1.13659436       0.01107733       1.78750354
Si       2.00794928       1.39235925      10.09057358        3       0.18553719      -4.52861903      -2.10034616
Si       5.76786090       3.42392070       9.12971789        3       2.30355142      -3.44062698      -0.13905634
Si       3.92274710       2.19102826      13.05223481        2      -0.40614143       0.19959120      -2.30040575
Si       7.67709770       4.50805478      12.33065375        2       1.58495022      -1.82734078      -0.35923285
Si       5.82665905       5.52446182      12.97421426        2      -2.26180971       0.36579379       0.23352930
Si       5.92991440       1.19068428      12.18459378        2      -5.57242237      -3.12626125      -0.02085041
Si       7.58750403       1.96261754      12.94409247        2       5.27580323       4.42899173       3.18906010
Si       3.60393329       4.40847224      12.15436636        2       3.86042342      -1.57173881      -0.51104657
Si       9.76180986       5.52286914      13.11607709        2      -3.04586328       1.93828702       1.22029340
Si       1.91134100       1.11718692      12.22416166        2       0.89069479      -0.42581526       2.23031902
Si       3.96524540       6.51495860      16.29655549        1      -0.80194068       1.23675187      -0.34078239
Si       3.79441991       2.07881423      15.21895511        1       0.70969197       0.65922320       2.88144976
Si       2.05288910       3.28381440      16.36869599        1      -0.10205152      -0.27888642      -0.42878002
Si       5.82942861       5.53376797      15.34189641        1       0.66540815       0.00585674       0.35379153
Si       7.79559098       6.65855144      16.36308412        1      -2.15185844       0.71054359       0.16706465
Si       7.84330092       2.26876627      15.38515643        1      -0.73844675      -0.98245640       0.29457039
Si       5.78834136       3.33105117      16.18195274        1      -0.10662172      -0.79219550      -0.50379071
Si       9.50423462       5.51795045      15.60638707        1       2.38361347      -0.78986330      -1.38838333
32
Lattice="5.43 0.0 0.0 0.0 5.43 0.0 0.0 0.0 36.3625" Properties=species:S:1:pos:R:3:tags:I:1:forces:R:3 config_type=slab-displaced miller=100 energy=-164.55051091868074 label_model=mpa-0 structure_key=16e03d04eae622cd822c0a1d29ef65aa7a86896a390b3b587bae171d7223d68a pbc="T T F"
Si       1.32531416       1.29490898       9.32930427        4       0.35578278       1.81018723       0.07846878
Si       2.73157193       2.77519537      10.73554570        4      -0.34174758      -0.75000218      -0.35101881
Si       4.15641212       4.02120179       9.35641189        4      -0.81576430       0.61039269       0.34876202
Si       0.02652401       0.02880025      10.63728496        4      -0.38991070      -0.74467057       1.28888998
Si       1.36425480       4.04134213      12.14388075        4      -0.10461692       0.79927934      -0.70239449
Si       2.59219203      -0.08146811       8.08301669        4       0.33486354      -0.95242438      -0.67003419
Si       4.05727873       1.32977826      12.04896083        4       0.11816252      -0.00593251       0.26286874
Si      -0.04083784       2.77319275       7.94636368        4       1.06094718      -0.50648743      -0.52521650
Si       1.37791498       1.36564944      14.86625215        3      -0.52524095      -0.47953881      -1.16169494
Si       2.62603607       2.68412158      16.16133595        3       1.13889980       0.51080822       0.43623722
Si       3.98962859       4.01766056      14.71670427        3       1.27637749      -0.12703601       1.91585432
Si       0.07054910       0.02030554      16.20004267        3      -1.25925030      -0.68561226      -0.22180195
Si       1.32084222       3.99357483      17.56716233        3       0.80084381       1.28217201      -0.75287917
Si       2.74220569      -0.06034694      13.50987507        3      -0.83569426       1.31999525      -0.99361565
Si       4.05182328       1.38601300      17.55821203        3       0.44165277       0.12591462      -0.79297512
Si      -0.00486776       2.73559713      13.43434739        3      -0.11922123      -0.95601094       0.15173043
Si       1.26659973       1.27632879      20.26885995        2       1.35765974       1.77668840      -1.22058181
Si       2.76811921       2.70159574      21.61106536        2      -1.23403376      -0.13084195      -1.11794047
Si       3.99094535       3.99775518      20.16759485        2       0.27562160       1.24126634       0.36147588
Si      -0.03351433       0.03046261      21.50277737        2      -1.08168856      -1.50332669       1.52668064
Si       1.47290355       4.07267863      22.91499713        2      -1.37696950       0.23220219      -0.36247153
Si       2.71069827       0.03957047      18.82339269        2      -0.62277925      -0.63356033       0.63552081
Si       4.01716471       1.43880015      22.93507177        2       0.89342216      -1.44133729       0.33145875
Si      -0.02987811       2.80157577      18.85516432        2      -0.09776891      -1.61666043       0.81400052
Si       1.29285596       1.33591083      25.66101249        1       0.24040522       0.23688670      -0.07426492
Si       2.73405468       2.62444908      27.00689792        1      -0.38962757       1.00641658      -0.56451063
Si       4.06915033       4.11698845      25.59558792        1      -0.34378768      -0.95119876      -0.05924854
Si       0.00312174      -0.07189286      26.93281504        1      -0.38104781       0.55683342       0.77150034
Si       1.32683475       4.09103911      28.36485715        1       0.29907003      -0.35848835       0.13957245
Si       2.65436313       0.02356650      24.29857017        1       0.55285365       0.38369617      -0.01599111
Si       4.04189044       1.39422982      28.37928848        1       0.80975916      -0.75937461       0.29771035
Si       0.03240665       2.68931074      24.23512109        1      -0.03717217       0.70976432       0.22590859
32
Lattice="5.43 0.0 0.0 0.0 5.43 0.0 0.0 0.0 36.3625" Properties=species:S:1:pos:R:3:tags:I:1:forces:R:3 config_type=slab-displaced miller=100 energy=-155.24957096565228 label_model=mpa-0 structure_key=5b4517268e0ef232d70add5d2d19db78a527b6d8dc7974c8fdf81e9fa31f40ac pbc="T T F"
Si       1.33135172       1.35559288       9.30135312        4      -0.90766278       0.79106072       1.76781487
Si       2.93428093       2.82584567      10.78791912        4      -0.87929144      -1.54674955      -1.29891834
Si       4.05333713       4.10296726       9.20664860        4       0.15671895      -0.25231122      -0.89963354
Si      -0.21053707      -0.19512667      10.84948438        4      -0.01882227       2.57178998      -1.64540244
Si       1.24847904       3.93176557      11.79634086        4       1.48442998       0.02435219       2.52160751
Si       2.58048970       0.13255954       7.97897032        4       1.22389916      -1.22555063      -0.78863845
Si       4.08434817       1.38005668      12.26221475        4      -1.69001717      -2.01408635      -1.93034130
Si       0.06662745       2.62920872       7.61843568        4      -0.41746636       0.45793534       1.09595520
Si       1.17354329       1.19920281      14.82481401        3       0.25143392       0.47136096      -2.07275082
Si       2.46197287       2.59521631      16.06121649        3       1.72977299       1.19364901       0.64626100
Si       4.10944512       4.03048949      14.80246276        3      -0.77676635      -0.48245872       1.06880263
Si      -0.08375826       0.00993187      16.28261649        3       1.77428195      -3.08234785      -5.62980683
Si       1.29623613       4.33261102      17.38305146        3       3.46571326      -2.97955244       3.20424632
Si       2.76322570      -0.14590770      13.44980329        3      -1.96588843       0.54308366      -0.39085101
Si       4.10945174       1.14037095      17.25780052        3      -3.39537147       7.43946987       2.74659774
Si      -0.13963967       2.77329497      13.32039779        3       2.87791858       0.37362089       1.79429332
Si       1.25914842       1.19493548      20.31198178        2       2.10368283       2.07800496      -1.47613284
Si       2.75366016       2.82476457      21.44334656        2      -2.30823261      -1.98974532       1.82529307
Si       4.10106534       4.06664642      20.28465683        2       1.08034003       2.04369739      -1.85809149
Si      -0.00265435       0.03720332      21.68742311        2       2.11406988      -4.50942011      -0.85364598
Si       1.24142693       3.84853148      23.11087197        2       7.26638839       7.48929203      -6.06790568
Si       2.95639525       0.34543303      18.83761068        2      -2.53136656      -3.08167496       2.25478225
Si       4.10122796       1.25896152      22.65563911        2      -2.85577107       3.63426848       3.22924761
Si       0.14439088       2.78930585      18.95985877        2      -0.74410570      -0.47473626      -1.49002186
Si       1.22012028       1.37402153      25.77620414        1       1.33451412       0.13215184      -0.40205504
Si       2.70659761       2.76696663      27.07689598        1       0.44655203      -0.16194706      -0.66026978
Si       4.36072553       3.93889924      25.63003176        1      -1.93261241       1.67010891       1.00486852
Si       0.11712430      -0.05368810      27.27730124        1      -2.25388448       2.48371113      -4.23604810
Si       1.14174798       4.00508990      28.31996491        1       2.81558018      -4.33629571       3.01654111
Si       2.85095680       0.17832517      24.39020290        1      -0.55583270      -1.69125699      -0.16950606
Si       4.13099471       1.29234014      28.32952058        1      -0.95268608       1.50364761       0.88035770
Si       0.15362347       2.73509591      24.16126914        1      -5.93951836      -7.07307180       4.81335070
32
Lattice="7.679179643685906 0.0 0.0 0.0 5.43 0.0 0.0 0.0 29.438564376450337" Properties=species:S:1:pos:R:3:tags:I:1:forces:R:3 config_type=slab-displaced miller=110 energy=-165.264377956931 label_model=mpa-0 structure_key=c2141db293f2c9cf409770a14839f025d5e47e0604cfc8e7deab4256984c0fe6 pbc="T T F"
Si       7.64186837       4.04228411       9.94257471        4       0.77231767       0.18244258      -0.49641305
Si       3.87226142       2.73393151       8.01277979        4      -0.24747643      -0.48550208      -0.10626520
Si       1.91030974       1.37945790       8.00896082        4       0.64141090       0.15823868      -0.28834223
Si       1.90869400       0.03983862       9.88822464        4       0.02140009      -0.63338227       0.23649591
Si       5.73701240       1.31436584       7.97997463        4       0.48116319       0.62347132      -0.19914606
Si       5.84971688       0.02218548       9.90618878        4      -1.44385839      -0.48181912      -0.04574789
Si       3.78432954       3.96231664       9.99585114        4       0.67303163       1.78893220      -1.30267142
Si       0.06429752       2.70687149       7.98975384        4      -0.90889497      -0.14507282       0.03385748
Si       3.83596735       4.13502836      13.76503961        3      -0.13991996      -0.51400375      -0.16295149
Si       7.67750725       2.71655489      11.83363877        3      -0.02978252       0.32834837       0.54248154
Si       5.79685342       1.35011609      11.81988894        3      -0.24107018       0.03888767       0.23478810
Si       5.69087791       0.04664403      13.77994943        3       0.88351818      -0.09022208      -0.15769545
Si       1.94510813       1.47142525      11.76816911        3      -0.04028966      -0.96810185       0.64830672
Si       1.89305133      -0.04524781      13.72465993        3       0.18078930       0.95907684      -0.30893563
Si       7.67650920       4.09576349      13.80587410        3      -0.66774421      -0.09847878      -0.72557574
Si       3.88337631       2.74941542      11.84785252        3       0.18302370      -0.59988085       1.02503747
Si       7.63196100       4.13691802      17.52477232        2       1.00010632      -0.30458567       0.81155946
Si       3.82335384       2.71895139      15.62280618        2       0.57253968      -0.18372039       0.05214842
Si       1.94652104       1.34965403      15.63942707        2      -0.09830506      -0.16083827       0.25039886
Si       2.03449473       0.08469826      17.66849459        2      -0.70509428      -0.85218156      -0.97303526
Si       5.83365074       1.35415520      15.69990341        2      -0.78779020       0.62717547      -0.60040861
Si       5.72204497       0.03119907      17.53324693        2       0.24801577       0.20642084       1.12432743
Si       3.91089029       4.03890142      17.53355454        2      -0.63661461       0.05622009       0.54012498
Si       7.70494981       2.71345425      15.64565147        2       0.23017567       0.07138982       0.38627129
Si       3.77661239       4.07749199      21.44455163        1       0.42241471       0.43709357       0.60586440
Si       7.69881967       2.66268073      19.54879962        1      -0.41953622       0.99213156      -0.45391318
Si       5.72910519       1.43302934      19.57979552        1       0.10642216      -0.99048183      -0.19689243
Si       5.71962439      -0.04191422      21.46447027        1       0.06913749      -0.04812387      -0.20432412
Si       1.89788160       1.36238692      19.55446735        1       0.86671270       0.10400979       0.63928229
Si       1.93772711      -0.00137714      21.51020162        1      -0.68178015      -0.00489775      -0.14511706
Si       7.65239363       4.04799525      21.45555051        1       0.24120742       0.42756864       0.00202977
Si       3.85866047       2.79177238      19.59289454        1      -0.54522974      -0.44011451      -0.76553931
32
Lattice="7.679179643685906 0.0 0.0 0.0 5.43 0.0 0.0 0.0 29.438564376450337" Properties=species:S:1:pos:R:3:tags:I:1:forces:R:3 config_type=slab-displaced miller=110 energy=-153.90456897985794 label_model=mpa-0 structure_key=10ed2dc3a0ade0b02a82f7a7d81c5422fcb7f51629f0efc369f85bc0adfef382 pbc="T T F"
Si       7.92974256       3.96070967      10.10576323        4      -1.29333180       3.43640565      -5.07882500
Si       3.84785971       2.81270228       7.95453340        4      -1.01842028      -0.08285669       0.23933629
Si       1.72095962       1.50294852       8.23190756        4       4.84192660      -2.33363364      -0.22007503
Si       1.85902248       0.05898304       9.99150407        4       2.31212838      -0.76410726      -0.13182253
Si       5.66265930       1.43828093       7.99239168        4       1.15564937       0.36223038      -0.56390482
Si       5.84896325       0.20555842       9.89096116        4       0.84604030      -2.50736945      -0.78423294
Si       4.09057895       4.04260569       9.98506040        4      -1.16054273       2.27573587      -2.38080000
Si       0.11438230       2.71140358       8.08669145        4      -4.75249106       2.73524277      -0.26817153
Si       4.04375977       4.20386368      13.62362110        3      -8.54718933      -6.56448933       0.62693230
Si       7.58319526       2.79681683      11.69529787        3      -0.97047608      -4.17798757       5.52411464
Si       5.55489590       1.30837100      11.76163461        3       3.71247023      -1.32142662       1.84458442
Si       5.60005619      -0.14738209      13.70173500        3       7.76701637       6.61088814       0.90902028
Si       1.89844397       1.34700350      11.88433398        3       0.17867808       2.44780613      -1.30749219
Si       1.92604800      -0.07113051      13.54472544        3      -0.52109456      -0.70744472       2.91634737
Si       7.50086501       3.99372445      13.79658232        3       1.31188100       1.26850356      -2.59852574
Si       4.04148935       2.72627912      11.69271659        3      -3.98322557       1.01431922       2.48887513
Si       7.69468882       4.12643264      17.58104438        2       0.18802614       0.25829047       1.14721729
Si       3.74959575       2.47539898      15.76619547        2       3.54648379       2.87716137      -0.10430581
Si       1.81279879       1.60907791      15.61495827        2      -1.63867861      -3.21205878      -0.50472859
Si       2.09255574      -0.03310103      17.62150312        2      -7.06919940       5.26007624      -0.86426479
Si       5.99762730       1.19635177      15.83755029        2      -1.10599643       5.05875288      -8.48226439
Si       5.82209647       0.14761113      17.40929114        2      -1.58916868      -5.33308844       9.16298737
Si       3.65869903       4.25136485      17.72400234        2       7.35526840      -5.57712328      -0.43281202
Si       7.54955959       2.90248456      15.67319771        2       0.28218354      -1.48195769       1.02447681
Si       3.78851239       3.85994899      21.32199880        1       0.81681686       2.29482579       2.60181020
Si       7.69116134       2.65615420      19.56428026        1      -1.56955393       0.55575949      -1.00448976
Si       5.66223223       1.37989466      19.69607282        1       2.11661772      -2.21111726      -0.54539580
Si       5.64160858      -0.07350552      21.76975054        1       0.38635238      -0.45864804      -1.02890798
Si       1.91456181       1.50338625      19.49154084        1      -0.05259291      -2.87489092       0.37896815
Si       1.93586012      -0.27848018      21.35177007        1      -0.84476198       0.86635238      -0.69135724
Si       7.64004042       3.84653357      21.48195192        1      -0.37875087       1.50432752       0.91449937
Si       3.84062817       2.58096437      19.63317748        1      -0.32206495       0.78152181      -2.78679347
32
Lattice="7.679179643685906 0.0 0.0 3.8395898218429525 6.650364651656329 0.0 0.0 0.0 26.18878887552392" Properties=species:S:1:pos:R:3:tags:I:1:forces:R:3 config_type=slab-displaced miller=111 energy=-164.85580317308998 label_model=mpa-0 structure_key=0128b9bc6160b8dab8e992e51a94717510a3e5fefaf368053b4498040826faf4 pbc="T T F"
Si       3.74777938       6.68655919       8.76331089        4       0.00767873      -0.14036202       0.09412860
Si       3.80302499       2.26412853       7.97895400        4       1.22853251      -0.91971501      -0.56252141
Si       2.01778723       3.25957953       8.80715967        4      -1.55280442       1.06808112      -0.07741127
Si       5.67666029       5.60980412       7.99658068        4       0.40485775      -0.44456011       0.04269962
Si       7.66667821       6.66898995       8.78826570        4      -0.30400553       0.17550343      -0.20703058
Si       7.68374521       2.22729976       7.98619210        4       0.06878047       0.33356467      -0.03506198
Si       5.73975220       3.32206752       8.79371149        4       0.02941622       0.40115890      -0.56557520
Si       9.54459723       5.54375670       7.93354444        4       0.08580523      -0.42510608       0.11642680
Si       7.65161206       4.43188578      11.80856474        3       0.31077130       0.61624319       0.95168485
Si       3.88769657       6.61584659      11.13233926        3      -1.26247615       0.84416910      -0.30025386
Si       5.71536541       1.15779497      11.93812922        3       0.35525271      -0.17855398      -0.99252645
Si       1.87885223       3.28066742      11.13140460        3       0.45288212       1.02028170      -0.10699959
Si       3.83216089       4.50375047      11.90593849        3      -0.43336728      -1.18730093       0.28992739
Si       7.57161189       6.74961329      11.15582897        3       1.07007518      -0.76090972      -0.29539125
Si       1.85493520       1.13826585      11.85615256        3       0.03421220       0.00236154       1.01876524
Si       5.73942481       3.40613336      11.11878482        3      -0.34709190      -0.64853357       0.09312536
Si       3.85412408       2.24585913      15.13571224        2       0.04544864      -1.02684610      -0.80039898
Si       7.67394110       4.39081169      14.27507615        2       0.02064196       1.81105791      -1.13534223
Si       5.73346230       5.56835032      14.95697573        2       0.12550241      -0.15808954       0.68734361
Si       5.72311174       1.07518620      14.19775204        2       0.39887381       0.96029437       1.05273970
Si       7.65764579       2.35401076      15.07989409        2       0.03930785      -2.41196037       0.03407379
Si       3.85623178       4.32582179      14.25718497        2      -0.26465915       1.35720879      -0.20500639
Si       9.60793920       5.57562759      15.00254978        2       0.10365363      -0.73980806       0.62028578
Si       1.95549173       1.14755255      14.23716632        2      -0.58924057       0.35150797       0.13663432
Si       3.86386473       6.68954090      18.12160662        1      -0.36782533      -0.13273528       0.37632820
Si       3.88350840       2.21128579      17.41078139        1      -1.13039709       0.05037304       0.75057004
Si       1.84694326       3.37451079      18.22261641        1       1.13521725      -0.35225467       0.16013814
Si       5.71840383       5.53386901      17.42467541        1       0.57366065       0.06438214      -0.54796513
Si       7.64592175       6.68035877      18.28279730        1      -0.01935857      -0.19489137      -0.10287261
Si       7.69633393       2.24663502      17.44037304        1      -0.66740254       0.19929027      -0.16622343
Si       5.70117422       3.32436369      18.20213716        1       0.69167913       0.13453843       0.29611922
Si       9.59116919       5.56721634      17.47903058        1      -0.24362121       0.33161026      -0.62041029
32
Lattice="7.679179643685906 0.0 0.0 3.8395898218429525 6.650364651656329 0.0 0.0 0.0 26.18878887552392" Properties=species:S:1:pos:R:3:tags:I:1:forces:R:3 config_type=slab-displaced miller=111 energy=-158.41672311251295 label_model=mpa-0 structure_key=f7bdb6a4ef0484828e41b693aba603177d50880173f2bd725c9842a253da8255 pbc="T T F"
Si       3.87139914       6.66349252       8.96399620        4      -0.80489462      -2.23967006      -0.80799645
Si       3.71016915       2.33536928       8.10668430        4       1.28419469      -0.54014536       0.37459268
Si       1.84425979       3.44550476       8.84643247        4      -1.02735815      -0.67472383      -0.26644687
Si       5.60074648       5.77493143       7.73717086        4       1.64903751      -1.20458573       1.02687932
Si       7.74729087       6.66080759       8.87213320        4      -0.91939090       0.30360315      -2.02645334
Si       7.63757278       1.96417910       8.05706995        4      -0.46328866       4.24899639      -0.49973408
Si       5.68889798       3.50703285       8.96543158        4       0.18727135      -0.30198311      -3.83180072
Si       9.60247990       5.57760562       7.83858549        4       0.10167788       0.34265023       0.46065782
Si       7.52326315       4.39137613      11.97122062        3       2.15791044       1.94592498       0.75010017
Si       3.71040231       6.70357326      11.14207830        3       2.57234809      -0.81841345       1.92478966
Si       5.85510391       1.18312409      12.00033980        3      -1.30963133       0.49041509      -1.56797313
Si       1.73595170       3.25699747      11.20433461        3       1.14035519       3.82673188      -1.34272079
Si       4.15928974       4.40466024      11.88364639        3      -6.10415508       2.82888707       1.54119860
Si       7.82264625       6.69168136      11.11880343        3      -1.13659436       0.01107733       1.78750354
Si       2.00794928       1.39235925      12.09057358        3       0.18553719      -4.52861903      -2.10034616
Si       5.76786090       3.42392070      11.12971789        3       2.30355142      -3.44062698      -0.13905634
Si       3.92274710       2.19102826      15.05223481        2      -0.40614143       0.19959120      -2.30040575
Si       7.67709770       4.50805478      14.33065375        2       1.58495022      -1.82734078      -0.35923285
Si       5.82665905       5.52446182      14.97421426        2      -2.26180971       0.36579379       0.23352930
Si       5.92991440       1.19068428      14.18459378        2      -5.57242237      -3.12626125      -0.02085041
Si       7.58750403       1.96261754      14.94409247        2       5.27580323       4.42899173       3.18906010
Si       3.60393329       4.40847224      14.15436636        2       3.86042342      -1.57173881      -0.51104657
Si       9.76180986       5.52286914      15.11607709        2      -3.04586328       1.93828702       1.22029340
Si       1.91134100       1.11718692      14.22416166        2       0.89069479      -0.42581526       2.23031902
Si       3.96524540       6.51495860      18.29655549        1      -0.80194068       1.23675187      -0.34078239
Si       3.79441991       2.07881423      17.21895511        1       0.70969197       0.65922320       2.88144976
Si       2.05288910       3.28381440      18.36869599        1      -0.10205152      -0.27888642      -0.42878002
Si       5.82942861       5.53376797      17.34189641        1       0.66540815       0.00585674       0.35379153
Si       7.79559098       6.65855144      18.36308412        1      -2.15185844       0.71054359       0.16706465
Si       7.84330092       2.26876627      17.38515643        1      -0.73844675      -0.98245640       0.29457039
Si       5.78834136       3.33105117      18.18195274        1      -0.10662172      -0.79219550      -0.50379071
Si       9.50423462       5.51795045      17.60638707        1       2.38361347      -0.78986330      -1.38838333
32
Lattice="5.43 0.0 0.0 0.0 5.43 0.0 0.0 0.0 40.3625" Properties=species:S:1:pos:R:3:tags:I:1:forces:R:3 config_type=slab-displaced miller=100 energy=-164.55051091868071 label_model=mpa-0 structure_key=1decd1117508e235e0f9a69430ac1932362d8f01b35c2119cec6b5399c62c0dc pbc="T T F"
Si       1.32531416       1.29490898      11.32930427        4       0.35578278       1.81018723       0.07846878
Si       2.73157193       2.77519537      12.73554570        4      -0.34174758      -0.75000218      -0.35101881
Si       4.15641212       4.02120179      11.35641189        4      -0.81576430       0.61039269       0.34876202
Si       0.02652401       0.02880025      12.63728496        4      -0.38991070      -0.74467057       1.28888998
Si       1.36425480       4.04134213      14.14388075        4      -0.10461692       0.79927934      -0.70239449
Si       2.59219203      -0.08146811      10.08301669        4       0.33486354      -0.95242438      -0.67003419
Si       4.05727873       1.32977826      14.04896083        4       0.11816252      -0.00593251       0.26286874
Si      -0.04083784       2.77319275       9.94636368        4       1.06094718      -0.50648743      -0.52521650
Si       1.37791498       1.36564944      16.86625215        3      -0.52524095      -0.47953881      -1.16169494
Si       2.62603607       2.68412158      18.16133595        3       1.13889980       0.51080822       0.43623722
Si       3.98962859       4.01766056      16.71670427        3       1.27637749      -0.12703601       1.91585432
Si       0.07054910       0.02030554      18.20004267        3      -1.25925030      -0.68561226      -0.22180195
Si       1.32084222       3.99357483      19.56716233        3       0.80084381       1.28217201      -0.75287917
Si       2.74220569      -0.06034694      15.50987507        3      -0.83569426       1.31999525      -0.99361565
Si       4.05182328       1.38601300      19.55821203        3       0.44165277       0.12591462      -0.79297512
Si      -0.00486776       2.73559713      15.43434739        3      -0.11922123      -0.95601094       0.15173043
Si       1.26659973       1.27632879      22.26885995        2       1.35765974       1.77668840      -1.22058181
Si       2.76811921       2.70159574      23.61106536        2      -1.23403376      -0.13084195      -1.11794047
Si       3.99094535       3.99775518      22.16759485        2       0.27562160       1.24126634       0.36147588
Si      -0.03351433       0.03046261      23.50277737        2      -1.08168856      -1.50332669       1.52668064
Si       1.47290355       4.07267863      24.91499713        2      -1.37696950       0.23220219      -0.36247153
Si       2.71069827       0.03957047      20.82339269        2      -0.62277925      -0.63356033       0.63552081
Si       4.01716471       1.43880015      24.93507177        2       0.89342216      -1.44133729       0.33145875
Si      -0.02987811       2.80157577      20.85516432        2      -0.09776891      -1.61666043       0.81400052
Si       1.29285596       1.33591083      27.66101249        1       0.24040522       0.23688670      -0.07426492
Si       2.73405468       2.62444908      29.00689792        1      -0.38962757       1.00641658      -0.56451063
Si       4.06915033       4.11698845      27.59558792        1      -0.34378768      -0.95119876      -0.05924854
Si       0.00312174      -0.07189286      28.93281504        1      -0.38104781       0.55683342       0.77150034
Si       1.32683475       4.09103911      30.36485715        1       0.29907003      -0.35848835       0.13957245
Si       2.65436313       0.02356650      26.29857017        1       0.55285365       0.38369617      -0.01599111
Si       4.04189044       1.39422982      30.37928848        1       0.80975916      -0.75937461       0.29771035
Si       0.03240665       2.68931074      26.23512109        1      -0.03717217       0.70976432       0.22590859
32
Lattice="5.43 0.0 0.0 0.0 5.43 0.0 0.0 0.0 40.3625" Properties=species:S:1:pos:R:3:tags:I:1:forces:R:3 config_type=slab-displaced miller=100 energy=-155.2495709656523 label_model=mpa-0 structure_key=ef95ecc4efdf80429005ffd56de6ac730e6021f157a240d13e482a255f2cd91f pbc="T T F"
Si       1.33135172       1.35559288      11.30135312        4      -0.90766278       0.79106072       1.76781487
Si       2.93428093       2.82584567      12.78791912        4      -0.87929144      -1.54674955      -1.29891834
Si       4.05333713       4.10296726      11.20664860        4       0.15671895      -0.25231122      -0.89963354
Si      -0.21053707      -0.19512667      12.84948438        4      -0.01882227       2.57178998      -1.64540244
Si       1.24847904       3.93176557      13.79634086        4       1.48442998       0.02435219       2.52160751
Si       2.58048970       0.13255954       9.97897032        4       1.22389916      -1.22555063      -0.78863845
Si       4.08434817       1.38005668      14.26221475        4      -1.69001717      -2.01408635      -1.93034130
Si       0.06662745       2.62920872       9.61843568        4      -0.41746636       0.45793534       1.09595520
Si       1.17354329       1.19920281      16.82481401        3       0.25143392       0.47136096      -2.07275082
Si       2.46197287       2.59521631      18.06121649        3       1.72977299       1.19364901       0.64626100
Si       4.10944512       4.03048949      16.80246276        3      -0.77676635      -0.48245872       1.06880263
Si      -0.08375826       0.00993187      18.28261649        3       1.77428195      -3.08234785      -5.62980683
Si       1.29623613       4.33261102      19.38305146        3       3.46571326      -2.97955244       3.20424632
Si       2.76322570      -0.14590770      15.44980329        3      -1.96588843       0.54308366      -0.39085101
Si       4.10945174       1.14037095      19.25780052        3      -3.39537147       7.43946987       2.74659774
Si      -0.13963967       2.77329497      15.32039779        3       2.87791858       0.37362089       1.79429332
Si       1.25914842       1.19493548      22.31198178        2       2.10368283       2.07800496      -1.47613284
Si       2.75366016       2.82476457      23.44334656        2      -2.30823261      -1.98974532       1.82529307
Si       4.10106534       4.06664642      22.28465683        2       1.08034003       2.04369739      -1.85809149
Si      -0.00265435       0.03720332      23.68742311        2       2.11406988      -4.50942011      -0.85364598
Si       1.24142693       3.84853148      25.11087197        2       7.26638839       7.48929203      -6.06790568
Si       2.95639525       0.34543303      20.83761068        2      -2.53136656      -3.08167496       2.25478225
Si       4.10122796       1.25896152      24.65563911        2      -2.85577107       3.63426848       3.22924761
Si       0.14439088       2.78930585      20.95985877        2      -0.74410570      -0.47473626      -1.49002186
Si       1.22012028       1.37402153      27.77620414        1       1.33451412       0.13215184      -0.40205504
Si       2.70659761       2.76696663      29.07689598        1       0.44655203      -0.16194706      -0.66026978
Si       4.36072553       3.93889924      27.63003176        1      -1.93261241       1.67010891       1.00486852
Si       0.11712430      -0.05368810      29.27730124        1      -2.25388448       2.48371113      -4.23604810
Si       1.14174798       4.00508990      30.31996491        1       2.81558018      -4.33629571       3.01654111
Si       2.85095680       0.17832517      26.39020290        1      -0.55583270      -1.69125699      -0.16950606
Si       4.13099471       1.29234014      30.32952058        1      -0.95268608       1.50364761       0.88035770
Si       0.15362347       2.73509591      26.16126914        1      -5.93951836      -7.07307180       4.81335070
32
Lattice="7.679179643685906 0.0 0.0 0.0 5.43 0.0 0.0 0.0 33.43856437645034" Properties=species:S:1:pos:R:3:tags:I:1:forces:R:3 config_type=slab-displaced miller=110 energy=-165.26437795693099 label_model=mpa-0 structure_key=b7c6591983dd8e7ee357ebbe524e6bc05a28483d22b0e86920ba46105e07b730 pbc="T T F"
Si       7.64186837       4.04228411      11.94257471        4       0.77231767       0.18244258      -0.49641305
Si       3.87226142       2.73393151      10.01277979        4      -0.24747643      -0.48550208      -0.10626520
Si       1.91030974       1.37945790      10.00896082        4       0.64141090       0.15823868      -0.28834223
Si       1.90869400       0.03983862      11.88822464        4       0.02140009      -0.63338227       0.23649591
Si       5.73701240       1.31436584       9.97997463        4       0.48116319       0.62347132      -0.19914606
Si       5.84971688       0.02218548      11.90618878        4      -1.44385839      -0.48181912      -0.04574789
Si       3.78432954       3.96231664      11.99585114        4       0.67303163       1.78893220      -1.30267142
Si       0.06429752       2.70687149       9.98975384        4      -0.90889497      -0.14507282       0.03385748
Si       3.83596735       4.13502836      15.76503961        3      -0.13991996      -0.51400375      -0.16295149
Si       7.67750725       2.71655489      13.83363877        3      -0.02978252       0.32834837       0.54248154
Si       5.79685342       1.35011609      13.81988894        3      -0.24107018       0.03888767       0.23478810
Si       5.69087791       0.04664403      15.77994943        3       0.88351818      -0.09022208      -0.15769545
Si       1.94510813       1.47142525      13.76816911        3      -0.04028966      -0.96810185       0.64830672
Si       1.89305133      -0.04524781      15.72465993        3       0.18078930       0.95907684      -0.30893563
Si       7.67650920       4.09576349      15.80587410        3      -0.66774421      -0.09847878      -0.72557574
Si       3.88337631       2.74941542      13.84785252        3       0.18302370      -0.59988085       1.02503747
Si       7.63196100       4.13691802      19.52477232        2       1.00010632      -0.30458567       0.81155946
Si       3.82335384       2.71895139      17.62280618        2       0.57253968      -0.18372039       0.05214842
Si       1.94652104       1.34965403      17.63942707        2      -0.09830506      -0.16083827       0.25039886
Si       2.03449473       0.08469826      19.66849459        2      -0.70509428      -0.85218156      -0.97303526
Si       5.83365074       1.35415520      17.69990341        2      -0.78779020       0.62717547      -0.60040861
Si       5.72204497       0.03119907      19.53324693        2       0.24801577       0.20642084       1.12432743
Si       3.91089029       4.03890142      19.53355454        2      -0.63661461       0.05622009       0.54012498
Si       7.70494981       2.71345425      17.64565147        2       0.23017567       0.07138982       0.38627129
Si       3.77661239       4.07749199      23.44455163        1       0.42241471       0.43709357       0.60586440
Si       7.69881967       2.66268073      21.54879962        1      -0.41953622       0.99213156      -0.45391318
Si       5.72910519       1.43302934      21.57979552        1       0.10642216      -0.99048183      -0.19689243
Si       5.71962439      -0.04191422      23.46447027        1       0.06913749      -0.04812387      -0.20432412
Si       1.89788160       1.36238692      21.55446735        1       0.86671270       0.10400979       0.63928229
Si       1.93772711      -0.00137714      23.51020162        1      -0.68178015      -0.00489775      -0.14511706
Si       7.65239363       4.04799525      23.45555051        1       0.24120742       0.42756864       0.00202977
Si       3.85866047       2.79177238      21.59289454        1      -0.54522974      -0.44011451      -0.76553931
32
Lattice="7.679179643685906 0.0 0.0 0.0 5.43 0.0 0.0 0.0 33.43856437645034" Properties=species:S:1:pos:R:3:tags:I:1:forces:R:3 config_type=slab-displaced miller=110 energy=-153.90456897985794 label_model=mpa-0 structure_key=663a6fb07b1f8b5000dd3569c1aac8a7fc07a419ffdd68e3a3bd7eef6995eb95 pbc="T T F"
Si       7.92974256       3.96070967      12.10576323        4      -1.29333180       3.43640565      -5.07882500
Si       3.84785971       2.81270228       9.95453340        4      -1.01842028      -0.08285669       0.23933629
Si       1.72095962       1.50294852      10.23190756        4       4.84192660      -2.33363364      -0.22007503
Si       1.85902248       0.05898304      11.99150407        4       2.31212838      -0.76410726      -0.13182253
Si       5.66265930       1.43828093       9.99239168        4       1.15564937       0.36223038      -0.56390482
Si       5.84896325       0.20555842      11.89096116        4       0.84604030      -2.50736945      -0.78423294
Si       4.09057895       4.04260569      11.98506040        4      -1.16054273       2.27573587      -2.38080000
Si       0.11438230       2.71140358      10.08669145        4      -4.75249106       2.73524277      -0.26817153
Si       4.04375977       4.20386368      15.62362110        3      -8.54718933      -6.56448933       0.62693230
Si       7.58319526       2.79681683      13.69529787        3      -0.97047608      -4.17798757       5.52411464
Si       5.55489590       1.30837100      13.76163461        3       3.71247023      -1.32142662       1.84458442
Si       5.60005619      -0.14738209      15.70173500        3       7.76701637       6.61088814       0.90902028
Si       1.89844397       1.34700350      13.88433398        3       0.17867808       2.44780613      -1.30749219
Si       1.92604800      -0.07113051      15.54472544        3      -0.52109456      -0.70744472       2.91634737
Si       7.50086501       3.99372445      15.79658232        3       1.31188100       1.26850356      -2.59852574
Si       4.04148935       2.72627912      13.69271659        3      -3.98322557       1.01431922       2.48887513
Si       7.69468882       4.12643264      19.58104438        2       0.18802614       0.25829047       1.14721729
Si       3.74959575       2.47539898      17.76619547        2       3.54648379       2.87716137      -0.10430581
Si       1.81279879       1.60907791      17.61495827        2      -1.63867861      -3.21205878      -0.50472859
Si       2.09255574      -0.03310103      19.62150312        2      -7.06919940       5.26007624      -0.86426479
Si       5.99762730       1.19635177      17.83755029        2      -1.10599643       5.05875288      -8.48226439
Si       5.82209647       0.14761113      19.40929114        2      -1.58916868      -5.33308844       9.16298737
Si       3.65869903       4.25136485      19.72400234        2       7.35526840      -5.57712328      -0.43281202
Si       7.54955959       2.90248456      17.67319771        2       0.28218354      -1.48195769       1.02447681
Si       3.78851239       3.85994899      23.32199880        1       0.81681686       2.29482579       2.60181020
Si       7.69116134       2.65615420      21.56428026        1      -1.56955393       0.55575949      -1.00448976
Si       5.66223223       1.37989466      21.69607282        1       2.11661772      -2.21111726      -0.54539580
Si       5.64160858      -0.07350552      23.76975054        1       0.38635238      -0.45864804      -1.02890798
Si       1.91456181       1.50338625      21.49154084        1      -0.05259291      -2.87489092       0.37896815
Si       1.93586012      -0.27848018      23.35177007        1      -0.84476198       0.86635238      -0.69135724
Si       7.64004042       3.84653357      23.48195192        1      -0.37875087       1.50432752       0.91449937
Si       3.84062817       2.58096437      21.63317748        1      -0.32206495       0.78152181      -2.78679347
32
Lattice="7.679179643685906 0.0 0.0 3.8395898218429525 6.650364651656329 0.0 0.0 0.0 30.18878887552392" Properties=species:S:1:pos:R:3:tags:I:1:forces:R:3 config_type=slab-displaced miller=111 energy=-164.85580317308995 label_model=mpa-0 structure_key=fdc4ff0af003ceb5bbd80de92aea2822f1d03566ed3c5dfd03985076a3273a10 pbc="T T F"
Si       3.74777938       6.68655919      10.76331089        4       0.00767873      -0.14036202       0.09412860
Si       3.80302499       2.26412853       9.97895400        4       1.22853251      -0.91971501      -0.56252141
Si       2.01778723       3.25957953      10.80715967        4      -1.55280442       1.06808112      -0.07741127
Si       5.67666029       5.60980412       9.99658068        4       0.40485775      -0.44456011       0.04269962
Si       7.66667821       6.66898995      10.78826570        4      -0.30400553       0.17550343      -0.20703058
Si       7.68374521       2.22729976       9.98619210        4       0.06878047       0.33356467      -0.03506198
Si       5.73975220       3.32206752      10.79371149        4       0.02941622       0.40115890      -0.56557520
Si       9.54459723       5.54375670       9.93354444        4       0.08580523      -0.42510608       0.11642680
Si       7.65161206       4.43188578      13.80856474        3       0.31077130       0.61624319       0.95168485
Si       3.88769657       6.61584659      13.13233926        3      -1.26247615       0.84416910      -0.30025386
Si       5.71536541       1.15779497      13.93812922        3       0.35525271      -0.17855398      -0.99252645
Si       1.87885223       3.28066742      13.13140460        3       0.45288212       1.02028170      -0.10699959
Si       3.83216089       4.50375047      13.90593849        3      -0.43336728      -1.18730093       0.28992739
Si       7.57161189       6.74961329      13.15582897        3       1.07007518      -0.76090972      -0.29539125
Si       1.85493520       1.13826585      13.85615256        3       0.03421220       0.00236154       1.01876524
Si       5.73942481       3.40613336      13.11878482        3      -0.34709190      -0.64853357       0.09312536
Si       3.85412408       2.24585913      17.13571224        2       0.04544864      -1.02684610      -0.80039898
Si       7.67394110       4.39081169      16.27507615        2       0.02064196       1.81105791      -1.13534223
Si       5.73346230       5.56835032      16.95697573        2       0.12550241      -0.15808954       0.68734361
Si       5.72311174       1.07518620      16.19775204        2       0.39887381       0.96029437       1.05273970
Si       7.65764579       2.35401076      17.07989409        2       0.03930785      -2.41196037       0.03407379
Si       3.85623178       4.32582179      16.25718497        2      -0.26465915       1.35720879      -0.20500639
Si       9.60793920       5.57562759      17.00254978        2       0.10365363      -0.73980806       0.62028578
Si       1.95549173       1.14755255      16.23716632        2      -0.58924057       0.35150797       0.13663432
Si       3.86386473       6.68954090      20.12160662        1      -0.36782533      -0.13273528       0.37632820
Si       3.88350840       2.21128579      19.41078139        1      -1.13039709       0.05037304       0.75057004
Si       1.84694326       3.37451079      20.22261641        1       1.13521725      -0.35225467       0.16013814
Si       5.71840383       5.53386901      19.42467541        1       0.57366065       0.06438214      -0.54796513
Si       7.64592175       6.68035877      20.28279730        1      -0.01935857      -0.19489137      -0.10287261
Si       7.69633393       2.24663502      19.44037304        1      -0.66740254       0.19929027      -0.16622343
Si       5.70117422       3.32436369      20.20213716        1       0.69167913       0.13453843       0.29611922
Si       9.59116919       5.56721634      19.47903058        1      -0.24362121       0.33161026      -0.62041029
32
Lattice="7.679179643685906 0.0 0.0 3.8395898218429525 6.650364651656329 0.0 0.0 0.0 30.18878887552392" Properties=species:S:1:pos:R:3:tags:I:1:forces:R:3 config_type=slab-displaced miller=111 energy=-158.41672311251293 label_model=mpa-0 structure_key=5a30d90752798a288fb1e6b31a28d36d4a44f9299e3561049225a675b2b153c8 pbc="T T F"
Si       3.87139914       6.66349252      10.96399620        4      -0.80489462      -2.23967006      -0.80799645
Si       3.71016915       2.33536928      10.10668430        4       1.28419469      -0.54014536       0.37459268
Si       1.84425979       3.44550476      10.84643247        4      -1.02735815      -0.67472383      -0.26644687
Si       5.60074648       5.77493143       9.73717086        4       1.64903751      -1.20458573       1.02687932
Si       7.74729087       6.66080759      10.87213320        4      -0.91939090       0.30360315      -2.02645334
Si       7.63757278       1.96417910      10.05706995        4      -0.46328866       4.24899639      -0.49973408
Si       5.68889798       3.50703285      10.96543158        4       0.18727135      -0.30198311      -3.83180072
Si       9.60247990       5.57760562       9.83858549        4       0.10167788       0.34265023       0.46065782
Si       7.52326315       4.39137613      13.97122062        3       2.15791044       1.94592498       0.75010017
Si       3.71040231       6.70357326      13.14207830        3       2.57234809      -0.81841345       1.92478966
Si       5.85510391       1.18312409      14.00033980        3      -1.30963133       0.49041509      -1.56797313
Si       1.73595170       3.25699747      13.20433461        3       1.14035519       3.82673188      -1.34272079
Si       4.15928974       4.40466024      13.88364639        3      -6.10415508       2.82888707       1.54119860
Si       7.82264625       6.69168136      13.11880343        3      -1.13659436       0.01107733       1.78750354
Si       2.00794928       1.39235925      14.09057358        3       0.18553719      -4.52861903      -2.10034616
Si       5.76786090       3.42392070      13.12971789        3       2.30355142      -3.44062698      -0.13905634
Si       3.92274710       2.19102826      17.05223481        2      -0.40614143       0.19959120      -2.30040575
Si       7.67709770       4.50805478      16.33065375        2       1.58495022      -1.82734078      -0.35923285
Si       5.82665905       5.52446182      16.97421426        2      -2.26180971       0.36579379       0.23352930
Si       5.92991440       1.19068428      16.18459378        2      -5.57242237      -3.12626125      -0.02085041
Si       7.58750403       1.96261754      16.94409247        2       5.27580323       4.42899173       3.18906010
Si       3.60393329       4.40847224      16.15436636        2       3.86042342      -1.57173881      -0.51104657
Si       9.76180986       5.52286914      17.11607709        2      -3.04586328       1.93828702       1.22029340
Si       1.91134100       1.11718692      16.22416166        2       0.89069479      -0.42581526       2.23031902
Si       3.96524540       6.51495860      20.29655549        1      -0.80194068       1.23675187      -0.34078239
Si       3.79441991       2.07881423      19.21895511        1       0.70969197       0.65922320       2.88144976
Si       2.05288910       3.28381440      20.36869599        1      -0.10205152      -0.27888642      -0.42878002
Si       5.82942861       5.53376797      19.34189641        1       0.66540815       0.00585674       0.35379153
Si       7.79559098       6.65855144      20.36308412        1      -2.15185844       0.71054359       0.16706465
Si       7.84330092       2.26876627      19.38515643        1      -0.73844675      -0.98245640       0.29457039
Si       5.78834136       3.33105117      20.18195274        1      -0.10662172      -0.79219550      -0.50379071
Si       9.50423462       5.51795045      19.60638707        1       2.38361347      -0.78986330      -1.38838333
32
Lattice="5.43 0.0 0.0 0.0 5.43 0.0 0.0 0.0 44.3625" Properties=species:S:1:pos:R:3:tags:I:1:forces:R:3 config_type=slab-displaced miller=100 energy=-164.55051091868074 label_model=mpa-0 structure_key=7e80ee2be7e7c2d89d7afd875cd64cf44e385f62fa0b0950743f743595d889b7 pbc="T T F"
Si       1.32531416       1.29490898      13.32930427        4       0.35578278       1.81018723       0.07846878
Si       2.73157193       2.77519537      14.73554570        4      -0.34174758      -0.75000218      -0.35101881
Si       4.15641212       4.02120179      13.35641189        4      -0.81576430       0.61039269       0.34876202
Si       0.02652401       0.02880025      14.63728496        4      -0.38991070      -0.74467057       1.28888998
Si       1.36425480       4.04134213      16.14388075        4      -0.10461692       0.79927934      -0.70239449
Si       2.59219203      -0.08146811      12.08301669        4       0.33486354      -0.95242438      -0.67003419
Si       4.05727873       1.32977826      16.04896083        4       0.11816252      -0.00593251       0.26286874
Si      -0.04083784       2.77319275      11.94636368        4       1.06094718      -0.50648743      -0.52521650
Si       1.37791498       1.36564944      18.86625215        3      -0.52524095      -0.47953881      -1.16169494
Si       2.62603607       2.68412158      20.16133595        3       1.13889980       0.51080822       0.43623722
Si       3.98962859       4.01766056      18.71670427        3       1.27637749      -0.12703601       1.91585432
Si       0.07054910       0.02030554      20.20004267        3      -1.25925030      -0.68561226      -0.22180195
Si       1.32084222       3.99357483      21.56716233        3       0.80084381       1.28217201      -0.75287917
Si       2.74220569      -0.06034694      17.50987507        3      -0.83569426       1.31999525      -0.99361565
Si       4.05182328       1.38601300      21.55821203        3       0.44165277       0.12591462      -0.79297512
Si      -0.00486776       2.73559713      17.43434739        3      -0.11922123      -0.95601094       0.15173043
Si       1.26659973       1.27632879      24.26885995        2       1.35765974       1.77668840      -1.22058181
Si       2.76811921       2.70159574      25.61106536        2      -1.23403376      -0.13084195      -1.11794047
Si       3.99094535       3.99775518      24.16759485        2       0.27562160       1.24126634       0.36147588
Si      -0.03351433       0.03046261      25.50277737        2      -1.08168856      -1.50332669       1.52668064
Si       1.47290355       4.07267863      26.91499713        2      -1.37696950       0.23220219      -0.36247153
Si       2.71069827       0.03957047      22.82339269        2      -0.62277925      -0.63356033       0.63552081
Si       4.01716471       1.43880015      26.93507177        2       0.89342216      -1.44133729       0.33145875
Si      -0.02987811       2.80157577      22.85516432        2      -0.09776891      -1.61666043       0.81400052
Si       1.29285596       1.33591083      29.66101249        1       0.24040522       0.23688670      -0.07426492
Si       2.73405468       2.62444908      31.00689792        1      -0.38962757       1.00641658      -0.56451063
Si       4.06915033       4.11698845      29.59558792        1      -0.34378768      -0.95119876      -0.05924854
Si       0.00312174      -0.07189286      30.93281504        1      -0.38104781       0.55683342       0.77150034
Si       1.32683475       4.09103911      32.36485715        1       0.29907003      -0.35848835       0.13957245
Si       2.65436313       0.02356650      28.29857017        1       0.55285365       0.38369617      -0.01599111
Si       4.04189044       1.39422982      32.37928848        1       0.80975916      -0.75937461       0.29771035
Si       0.03240665       2.68931074      28.23512109        1      -0.03717217       0.70976432       0.22590859
32
Lattice="5.43 0.0 0.0 0.0 5.43 0.0 0.0 0.0 44.3625" Properties=species:S:1:pos:R:3:tags:I:1:forces:R:3 config_type=slab-displaced miller=100 energy=-155.24957096565228 label_model=mpa-0 structure_key=3a77b45a72646734d57d0b7f38ab23aa93886ad89a8554985644bb45a5f7d1dc pbc="T T F"
Si       1.33135172       1.35559288      13.30135312        4      -0.90766278       0.79106072       1.76781487
Si       2.93428093       2.82584567      14.78791912        4      -0.87929144      -1.54674955      -1.29891834
Si       4.05333713       4.10296726      13.20664860        4       0.15671895      -0.25231122      -0.89963354
Si      -0.21053707      -0.19512667      14.84948438        4      -0.01882227       2.57178998      -1.64540244
Si       1.24847904       3.93176557      15.79634086        4       1.48442998       0.02435219       2.52160751
Si       2.58048970       0.13255954      11.97897032        4       1.22389916      -1.22555063      -0.78863845
Si       4.08434817       1.38005668      16.26221475        4      -1.69001717      -2.01408635      -1.93034130
Si       0.06662745       2.62920872      11.61843568        4      -0.41746636       0.45793534       1.09595520
Si       1.17354329       1.19920281      18.82481401        3       0.25143392       0.47136096      -2.07275082
Si       2.46197287       2.59521631      20.06121649        3       1.72977299       1.19364901       0.64626100
Si       4.10944512       4.03048949      18.80246276        3      -0.77676635      -0.48245872       1.06880263
Si      -0.08375826       0.00993187      20.28261649        3       1.77428195      -3.08234785      -5.62980683
Si       1.29623613       4.33261102      21.38305146        3       3.46571326      -2.97955244       3.20424632
Si       2.76322570      -0.14590770      17.44980329        3      -1.96588843       0.54308366      -0.39085101
Si       4.10945174       1.14037095      21.25780052        3      -3.39537147       7.43946987       2.74659774
Si      -0.13963967       2.77329497      17.32039779        3       2.87791858       0.37362089       1.79429332
Si       1.25914842       1.19493548      24.31198178        2       2.10368283       2.07800496      -1.47613284
Si       2.75366016       2.82476457      25.44334656        2      -2.30823261      -1.98974532       1.82529307
Si       4.10106534       4.06664642      24.28465683        2       1.08034003       2.04369739      -1.85809149
Si      -0.00265435       0.03720332      25.68742311        2       2.11406988      -4.50942011      -0.85364598
Si       1.24142693       3.84853148      27.11087197        2       7.26638839       7.48929203      -6.06790568
Si       2.95639525       0.34543303      22.83761068        2      -2.53136656      -3.08167496       2.25478225
Si       4.10122796       1.25896152      26.65563911        2      -2.85577107       3.63426848       3.22924761
Si       0.14439088       2.78930585      22.95985877        2      -0.74410570      -0.47473626      -1.49002186
Si       1.22012028       1.37402153      29.77620414        1       1.33451412       0.13215184      -0.40205504
Si       2.70659761       2.76696663      31.07689598        1       0.44655203      -0.16194706      -0.66026978
Si       4.36072553       3.93889924      29.63003176        1      -1.93261241       1.67010891       1.00486852
Si       0.11712430      -0.05368810      31.27730124        1      -2.25388448       2.48371113      -4.23604810
Si       1.14174798       4.00508990      32.31996491        1       2.81558018      -4.33629571       3.01654111
Si       2.85095680       0.17832517      28.39020290        1      -0.55583270      -1.69125699      -0.16950606
Si       4.13099471       1.29234014      32.32952058        1      -0.95268608       1.50364761       0.88035770
Si       0.15362347       2.73509591      28.16126914        1      -5.93951836      -7.07307180       4.81335070
32
Lattice="7.679179643685906 0.0 0.0 0.0 5.43 0.0 0.0 0.0 37.43856437645034" Properties=species:S:1:pos:R:3:tags:I:1:forces:R:3 config_type=slab-displaced miller=110 energy=-165.26437795693099 label_model=mpa-0 structure_key=8bfa391788df8bedd8ac29297f7e6770476fb10d968db9f6af47dfdfa7211741 pbc="T T F"
Si       7.64186837       4.04228411      13.94257471        4       0.77231767       0.18244258      -0.49641305
Si       3.87226142       2.73393151      12.01277979        4      -0.24747643      -0.48550208      -0.10626520
Si       1.91030974       1.37945790      12.00896082        4       0.64141090       0.15823868      -0.28834223
Si       1.90869400       0.03983862      13.88822464        4       0.02140009      -0.63338227       0.23649591
Si       5.73701240       1.31436584      11.97997463        4       0.48116319       0.62347132      -0.19914606
Si       5.84971688       0.02218548      13.90618878        4      -1.44385839      -0.48181912      -0.04574789
Si       3.78432954       3.96231664      13.99585114        4       0.67303163       1.78893220      -1.30267142
Si       0.06429752       2.70687149      11.98975384        4      -0.90889497      -0.14507282       0.03385748
Si       3.83596735       4.13502836      17.76503961        3      -0.13991996      -0.51400375      -0.16295149
Si       7.67750725       2.71655489      15.83363877        3      -0.02978252       0.32834837       0.54248154
Si       5.79685342       1.35011609      15.81988894        3      -0.24107018       0.03888767       0.23478810
Si       5.69087791       0.04664403      17.77994943        3       0.88351818      -0.09022208      -0.15769545
Si       1.94510813       1.47142525      15.76816911        3      -0.04028966      -0.96810185       0.64830672
Si       1.89305133      -0.04524781      17.72465993        3       0.18078930       0.95907684      -0.30893563
Si       7.67650920       4.09576349      17.80587410        3      -0.66774421      -0.09847878      -0.72557574
Si       3.88337631       2.74941542      15.84785252        3       0.18302370      -0.59988085       1.02503747
Si       7.63196100       4.13691802      21.52477232        2       1.00010632      -0.30458567       0.81155946
Si       3.82335384       2.71895139      19.62280618        2       0.57253968      -0.18372039       0.05214842
Si       1.94652104       1.34965403      19.63942707        2      -0.09830506      -0.16083827       0.25039886
Si       2.03449473       0.08469826      21.66849459        2      -0.70509428      -0.85218156      -0.97303526
Si       5.83365074       1.35415520      19.69990341        2      -0.78779020       0.62717547      -0.60040861
Si       5.72204497       0.03119907      21.53324693        2       0.24801577       0.20642084       1.12432743
Si       3.91089029       4.03890142      21.53355454        2      -0.63661461       0.05622009       0.54012498
Si       7.70494981       2.71345425      19.64565147        2       0.23017567       0.07138982       0.38627129
Si       3.77661239       4.07749199      25.44455163        1       0.42241471       0.43709357       0.60586440
Si       7.69881967       2.66268073      23.54879962        1      -0.41953622       0.99213156      -0.45391318
Si       5.72910519       1.43302934      23.57979552        1       0.10642216      -0.99048183      -0.19689243
Si       5.71962439      -0.04191422      25.46447027        1       0.06913749      -0.04812387      -0.20432412
Si       1.89788160       1.36238692      23.55446735        1       0.86671270       0.10400979       0.63928229
Si       1.93772711      -0.00137714      25.51020162        1      -0.68178015      -0.00489775      -0.14511706
Si       7.65239363       4.04799525      25.45555051        1       0.24120742       0.42756864       0.00202977
Si       3.85866047       2.79177238      23.59289454        1      -0.54522974      -0.44011451      -0.76553931
32
Lattice="7.679179643685906 0.0 0.0 0.0 5.43 0.0 0.0 0.0 37.43856437645034" Properties=species:S:1:pos:R:3:tags:I:1:forces:R:3 config_type=slab-displaced miller=110 energy=-153.9045689798579 label_model=mpa-0 structure_key=4ebe1643c26a4df4e04901afb7f8ed174f39ae7f7d7ef159d10ca108af0a3ba5 pbc="T T F"
Si       7.92974256       3.96070967      14.10576323        4      -1.29333180       3.43640565      -5.07882500
Si       3.84785971       2.81270228      11.95453340        4      -1.01842028      -0.08285669       0.23933629
Si       1.72095962       1.50294852      12.23190756        4       4.84192660      -2.33363364      -0.22007503
Si       1.85902248       0.05898304      13.99150407        4       2.31212838      -0.76410726      -0.13182253
Si       5.66265930       1.43828093      11.99239168        4       1.15564937       0.36223038      -0.56390482
Si       5.84896325       0.20555842      13.89096116        4       0.84604030      -2.50736945      -0.78423294
Si       4.09057895       4.04260569      13.98506040        4      -1.16054273       2.27573587      -2.38080000
Si       0.11438230       2.71140358      12.08669145        4      -4.75249106       2.73524277      -0.26817153
Si       4.04375977       4.20386368      17.62362110        3      -8.54718933      -6.56448933       0.62693230
Si       7.58319526       2.79681683      15.69529787        3      -0.97047608      -4.17798757       5.52411464
Si       5.55489590       1.30837100      15.76163461        3       3.71247023      -1.32142662       1.84458442
Si       5.60005619      -0.14738209      17.70173500        3       7.76701637       6.61088814       0.90902028
Si       1.89844397       1.34700350      15.88433398        3       0.17867808       2.44780613      -1.30749219
Si       1.92604800      -0.07113051      17.54472544        3      -0.52109456      -0.70744472       2.91634737
Si       7.50086501       3.99372445      17.79658232        3       1.31188100       1.26850356      -2.59852574
Si       4.04148935       2.72627912      15.69271659        3      -3.98322557       1.01431922       2.48887513
Si       7.69468882       4.12643264      21.58104438        2       0.18802614       0.25829047       1.14721729
Si       3.74959575       2.47539898      19.76619547        2       3.54648379       2.87716137      -0.10430581
Si       1.81279879       1.60907791      19.61495827        2      -1.63867861      -3.21205878      -0.50472859
Si       2.09255574      -0.03310103      21.62150312        2      -7.06919940       5.26007624      -0.86426479
Si       5.99762730       1.19635177      19.83755029        2      -1.10599643       5.05875288      -8.48226439
Si       5.82209647       0.14761113      21.40929114        2      -1.58916868      -5.33308844       9.16298737
Si       3.65869903       4.25136485      21.72400234        2       7.35526840      -5.57712328      -0.43281202
Si       7.54955959       2.90248456      19.67319771        2       0.28218354      -1.48195769       1.02447681
Si       3.78851239       3.85994899      25.32199880        1       0.81681686       2.29482579       2.60181020
Si       7.69116134       2.65615420      23.56428026        1      -1.56955393       0.55575949      -1.00448976
Si       5.66223223       1.37989466      23.69607282        1       2.11661772      -2.21111726      -0.54539580
Si       5.64160858      -0.07350552      25.76975054        1       0.38635238      -0.45864804      -1.02890798
Si       1.91456181       1.50338625      23.49154084        1      -0.05259291      -2.87489092       0.37896815
Si       1.93586012      -0.27848018      25.35177007        1      -0.84476198       0.86635238      -0.69135724
Si       7.64004042       3.84653357      25.48195192        1      -0.37875087       1.50432752       0.91449937
Si       3.84062817       2.58096437      23.63317748        1      -0.32206495       0.78152181      -2.78679347
32
Lattice="7.679179643685906 0.0 0.0 3.8395898218429525 6.650364651656329 0.0 0.0 0.0 34.18878887552392" Properties=species:S:1:pos:R:3:tags:I:1:forces:R:3 config_type=slab-displaced miller=111 energy=-164.85580317308995 label_model=mpa-0 structure_key=f2d19688cac6dd8e2947b3a21803dd9dbed3eaf6b7ef4aef812c707373d49e36 pbc="T T F"
Si       3.74777938       6.68655919      12.76331089        4       0.00767873      -0.14036202       0.09412860
Si       3.80302499       2.26412853      11.97895400        4       1.22853251      -0.91971501      -0.56252141
Si       2.01778723       3.25957953      12.80715967        4      -1.55280442       1.06808112      -0.07741127
Si       5.67666029       5.60980412      11.99658068        4       0.40485775      -0.44456011       0.04269962
Si       7.66667821       6.66898995      12.78826570        4      -0.30400553       0.17550343      -0.20703058
Si       7.68374521       2.22729976      11.98619210        4       0.06878047       0.33356467      -0.03506198
Si       5.73975220       3.32206752      12.79371149        4       0.02941622       0.40115890      -0.56557520
Si       9.54459723       5.54375670      11.93354444        4       0.08580523      -0.42510608       0.11642680
Si       7.65161206       4.43188578      15.80856474        3       0.31077130       0.61624319       0.95168485
Si       3.88769657       6.61584659      15.13233926        3      -1.26247615       0.84416910      -0.30025386
Si       5.71536541       1.15779497      15.93812922        3       0.35525271      -0.17855398      -0.99252645
Si       1.87885223       3.28066742      15.13140460        3       0.45288212       1.02028170      -0.10699959
Si       3.83216089       4.50375047      15.90593849        3      -0.43336728      -1.18730093       0.28992739
Si       7.57161189       6.74961329      15.15582897        3       1.07007518      -0.76090972      -0.29539125
Si       1.85493520       1.13826585      15.85615256        3       0.03421220       0.00236154       1.01876524
Si       5.73942481       3.40613336      15.11878482        3      -0.34709190      -0.64853357       0.09312536
Si       3.85412408       2.24585913      19.13571224        2       0.04544864      -1.02684610      -0.80039898
Si       7.67394110       4.39081169      18.27507615        2       0.02064196       1.81105791      -1.13534223
Si       5.73346230       5.56835032      18.95697573        2       0.12550241      -0.15808954       0.68734361
Si       5.72311174       1.07518620      18.19775204        2       0.39887381       0.96029437       1.05273970
Si       7.65764579       2.35401076      19.07989409        2       0.03930785      -2.41196037       0.03407379
Si       3.85623178       4.32582179      18.25718497        2      -0.26465915       1.35720879      -0.20500639
Si       9.60793920       5.57562759      19.00254978        2       0.10365363      -0.73980806       0.62028578
Si       1.95549173       1.14755255      18.23716632        2      -0.58924057       0.35150797       0.13663432
Si       3.86386473       6.68954090      22.12160662        1      -0.36782533      -0.13273528       0.37632820
Si       3.88350840       2.21128579      21.41078139        1      -1.13039709       0.05037304       0.75057004
Si       1.84694326       3.37451079      22.22261641        1       1.13521725      -0.35225467       0.16013814
Si       5.71840383       5.53386901      21.42467541        1       0.57366065       0.06438214      -0.54796513
Si       7.64592175       6.68035877      22.28279730        1      -0.01935857      -0.19489137      -0.10287261
Si       7.69633393       2.24663502      21.44037304        1      -0.66740254       0.19929027      -0.16622343
Si       5.70117422       3.32436369      22.20213716        1       0.69167913       0.13453843       0.29611922
Si       9.59116919       5.56721634      21.47903058        1      -0.24362121       0.33161026      -0.62041029
32
Lattice="7.679179643685906 0.0 0.0 3.8395898218429525 6.650364651656329 0.0 0.0 0.0 34.18878887552392" Properties=species:S:1:pos:R:3:tags:I:1:forces:R:3 config_type=slab-displaced miller=111 energy=-158.41672311251293 label_model=mpa-0 structure_key=c006d627a11f707eb2553c51075830b826c8da33c79df17c94a8293e32234b96 pbc="T T F"
Si       3.87139914       6.66349252      12.96399620        4      -0.80489462      -2.23967006      -0.80799645
Si       3.71016915       2.33536928      12.10668430        4       1.28419469      -0.54014536       0.37459268
Si       1.84425979       3.44550476      12.84643247        4      -1.02735815      -0.67472383      -0.26644687
Si       5.60074648       5.77493143      11.73717086        4       1.64903751      -1.20458573       1.02687932
Si       7.74729087       6.66080759      12.87213320        4      -0.91939090       0.30360315      -2.02645334
Si       7.63757278       1.96417910      12.05706995        4      -0.46328866       4.24899639      -0.49973408
Si       5.68889798       3.50703285      12.96543158        4       0.18727135      -0.30198311      -3.83180072
Si       9.60247990       5.57760562      11.83858549        4       0.10167788       0.34265023       0.46065782
Si       7.52326315       4.39137613      15.97122062        3       2.15791044       1.94592498       0.75010017
Si       3.71040231       6.70357326      15.14207830        3       2.57234809      -0.81841345       1.92478966
Si       5.85510391       1.18312409      16.00033980        3      -1.30963133       0.49041509      -1.56797313
Si       1.73595170       3.25699747      15.20433461        3       1.14035519       3.82673188      -1.34272079
Si       4.15928974       4.40466024      15.88364639        3      -6.10415508       2.82888707       1.54119860
Si       7.82264625       6.69168136      15.11880343        3      -1.13659436       0.01107733       1.78750354
Si       2.00794928       1.39235925      16.09057358        3       0.18553719      -4.52861903      -2.10034616
Si       5.76786090       3.42392070      15.12971789        3       2.30355142      -3.44062698      -0.13905634
Si       3.92274710       2.19102826      19.05223481        2      -0.40614143       0.19959120      -2.30040575
Si       7.67709770       4.50805478      18.33065375        2       1.58495022      -1.82734078      -0.35923285
Si       5.82665905       5.52446182      18.97421426        2      -2.26180971       0.36579379       0.23352930
Si       5.92991440       1.19068428      18.18459378        2      -5.57242237      -3.12626125      -0.02085041
Si       7.58750403       1.96261754      18.94409247        2       5.27580323       4.42899173       3.18906010
Si       3.60393329       4.40847224      18.15436636        2       3.86042342      -1.57173881      -0.51104657
Si       9.76180986       5.52286914      19.11607709        2      -3.04586328       1.93828702       1.22029340
Si       1.91134100       1.11718692      18.22416166        2       0.89069479      -0.42581526       2.23031902
Si       3.96524540       6.51495860      22.29655549        1      -0.80194068       1.23675187      -0.34078239
Si       3.79441991       2.07881423      21.21895511        1       0.70969197       0.65922320       2.88144976
Si       2.05288910       3.28381440      22.36869599        1      -0.10205152      -0.27888642      -0.42878002
Si       5.82942861       5.53376797      21.34189641        1       0.66540815       0.00585674       0.35379153
Si       7.79559098       6.65855144      22.36308412        1      -2.15185844       0.71054359       0.16706465
Si       7.84330092       2.26876627      21.38515643        1      -0.73844675      -0.98245640       0.29457039
Si       5.78834136       3.33105117      22.18195274        1      -0.10662172      -0.79219550      -0.50379071
Si       9.50423462       5.51795045      21.60638707        1       2.38361347      -0.78986330      -1.38838333
48
Lattice="5.43 0.0 0.0 0.0 5.43 0.0 0.0 0.0 43.2225" Properties=species:S:1:pos:R:3:tags:I:1:forces:R:3 config_type=slab-displaced miller=100 energy=-250.40563620667527 label_model=mpa-0 structure_key=0fc911cd159b0477f09cb1c3a548197bd486a08d4ba01b86b4e56f3c59d4d58c pbc="T T F"
Si       1.32531416       1.29490898       7.32930427        6       0.35578277       1.81018725       0.07846812
Si       2.73157193       2.77519537       8.73554570        6      -0.34174743      -0.75000198      -0.35102033
Si       4.15641212       4.02120179       7.35641189        6      -0.81576427       0.61039269       0.34876159
Si       0.02652401       0.02880025       8.63728496        6      -0.38991089      -0.74467066       1.28888716
Si       1.36425480       4.04134213      10.14388075        6      -0.10461526       0.79927857      -0.70239890
Si       2.59219203      -0.08146811       6.08301669        6       0.33486353      -0.95242438      -0.67003424
Si       4.05727873       1.32977826      10.04896083        6       0.11816162      -0.00593153       0.26286383
Si      -0.04083784       2.77319275       5.94636368        6       1.06094718      -0.50648743      -0.52521651
Si       1.37791498       1.36564944      12.86625215        5      -0.52524031      -0.47953936      -1.16163535
Si       2.62603607       2.68412158      14.16133595        5       1.13885836       0.51080073       0.43610387
Si       3.98962859       4.01766056      12.71670427        5       1.27636853      -0.12704614       1.91592613
Si       0.07054910       0.02030554      14.20004267        5      -1.25922087      -0.68562802      -0.22196493
Si       1.32084222       3.99357483      15.56716233        5       0.80111595       1.28239109      -0.75338547
Si       2.74220569      -0.06034694      11.50987507        5      -0.83569128       1.31999354      -0.99354733
Si       4.05182328       1.38601300      15.55821203        5       0.44164574       0.12597503      -0.79327461
Si      -0.00486776       2.73559713      11.43434739        5      -0.11921889      -0.95600966       0.15178537
Si       1.26659973       1.27632879      18.26885995        4       1.36081184       1.78076374      -1.22060129
Si       2.76811921       2.70159574      19.61106536        4      -1.23577562      -0.13535140      -1.12062796
Si       3.99094535       3.99775518      18.16759485        4       0.27531763       1.24291490       0.36109276
Si      -0.03351433       0.03046261      19.50277737        4      -1.08430523      -1.50892877       1.52456421
Si       1.47290355       4.07267863      20.91499713        4      -1.38804343       0.22796037      -0.32374737
Si       2.71069827       0.03957047      16.82339269        4      -0.62337971      -0.63378863       0.63553347
Si       4.01716471       1.43880015      20.93507177        4       0.88963488      -1.45292658       0.38131376
Si      -0.02987811       2.80157577      16.85516432        4      -0.09706454      -1.61805046       0.81372072
Si       1.29285596       1.33591083      23.66101249        3       0.33867873       0.18723676      -0.10462644
Si       2.73405468       2.62444908      25.00689792        3      -0.47534648       1.31885975      -0.43088042
Si       4.06915033       4.11698845      23.59558792        3      -0.30644044      -1.05484107      -0.11941828
Si       0.00312174      -0.07189286      24.93281504        3      -0.54121356       0.68547221       1.05542764
Si       1.32683475       4.09103911      26.36485715        3       1.04504851       0.03621367      -0.17976275
Si       2.65436313       0.02356650      22.29857017        3       0.57797108       0.38805262      -0.00888603
Si       4.04189044       1.39422982      26.37928848        3       1.52150785      -0.30169532       0.07686495
Si       0.03240665       2.68931074      22.23512109        3      -0.02709870       0.72469383       0.24433340
Si       1.40614715       1.32957034      29.13510740        2      -0.14068197       0.41832312       0.36063862
Si       2.68002694       2.73358883      30.55194371        2       0.13452011       0.63979171      -1.15206418
Si       4.14970380       4.09815948      29.04505280        2      -1.32283036      -0.63614254       0.05171330
Si      -0.05565597      -0.00497297      30.38601598        2       0.54587908       0.63295623       0.90517619
Si       1.28827570       4.10367453      31.81975210        2      -0.02229655       0.03425658       0.65706591
Si       2.73221607       0.09963672      27.74202891        2      -0.01248411      -1.17464483      -0.25740648
Si       4.08128899       1.44982462      31.78424669        2      -0.48920159      -1.53167241       0.07658953
Si       0.13560935       2.73694178      27.78102603        2      -0.96247434      -0.48537071      -0.38671054
Si       1.28115105       1.40267567      34.40616549        1       0.78437735      -0.12159994       1.45999462
Si       2.71325200       2.74377501      35.87722149        1      -0.12812684      -0.33596119      -0.25795092
Si       4.11938044       4.09711749      34.51864002        1      -0.71051427       0.11445161       0.79712947
Si       0.01115317       0.03227414      35.85577307        1       0.20081572       0.14226680      -0.07413688
Si       1.27105946       4.02228286      37.21430406        1       0.00479571      -0.11113978       0.31008822
Si       2.72736795       0.03048938      33.26865280        1      -0.09986228      -0.05249389      -1.43851947
Si       4.04751409       1.29533361      37.27613576        1      -0.19470957       0.33222194       0.01820504
Si      -0.13984530       2.67373327      33.22208286        1       1.04615657       0.99689195      -0.96443120
48
Lattice="5.43 0.0 0.0 0.0 5.43 0.0 0.0 0.0 43.2225" Properties=species:S:1:pos:R:3:tags:I:1:forces:R:3 config_type=slab-displaced miller=100 energy=-238.72987536061137 label_model=mpa-0 structure_key=b6b1d197dfc17ac5f6ddad4a73a40035f910e1c8fd4c93272588a003dc8cd906 pbc="T T F"
Si       1.33135172       1.35559288       7.30135312        6      -0.90766277       0.79106073       1.76781413
Si       2.93428093       2.82584567       8.78791912        6      -0.87929056      -1.54674908      -1.29892365
Si       4.05333713       4.10296726       7.20664860        6       0.15671894      -0.25231119      -0.89963426
Si      -0.21053707      -0.19512667       8.84948438        6      -0.01882239       2.57178942      -1.64540487
Si       1.24847904       3.93176557       9.79634086        6       1.48443103       0.02435241       2.52160915
Si       2.58048970       0.13255954       5.97897032        6       1.22389916      -1.22555063      -0.78863845
Si       4.08434817       1.38005668      10.26221475        6      -1.69001801      -2.01408228      -1.93035129
Si       0.06662745       2.62920872       5.61843568        6      -0.41746636       0.45793534       1.09595512
Si       1.17354329       1.19920281      12.82481401        5       0.25141663       0.47133337      -2.07274269
Si       2.46197287       2.59521631      14.06121649        5       1.72975450       1.19370121       0.64615722
Si       4.10944512       4.03048949      12.80246276        5      -0.77679215      -0.48251034       1.06881989
Si      -0.08375826       0.00993187      14.28261649        5       1.77425392      -3.08233894      -5.62997547
Si       1.29623613       4.33261102      15.38305146        5       3.46534408      -2.98001983       3.20508738
Si       2.76322570      -0.14590770      11.44980329        5      -1.96587891       0.54309068      -0.39078938
Si       4.10945174       1.14037095      15.25780052        5      -3.39521796       7.43969583       2.74763463
Si      -0.13963967       2.77329497      11.32039779        5       2.87792270       0.37362617       1.79434562
Si       1.25914842       1.19493548      18.31198178        4       2.10445462       2.07639824      -1.47658671
Si       2.75366016       2.82476457      19.44334656        4      -2.31604054      -1.98412340       1.82119416
Si       4.10106534       4.06664642      18.28465683        4       1.07738650       2.04417768      -1.86267347
Si      -0.00265435       0.03720332      19.68742311        4       2.11571172      -4.51180517      -0.85352954
Si       1.24142693       3.84853148      21.11087197        4       7.26241588       7.50085736      -6.01918415
Si       2.95639525       0.34543303      16.83761068        4      -2.53310526      -3.08257143       2.25293937
Si       4.10122796       1.25896152      20.65563911        4      -2.83290904       3.65030229       3.27279910
Si       0.14439088       2.78930585      16.95985877        4      -0.74483647      -0.47446216      -1.49321079
Si       1.22012028       1.37402153      23.77620414        3       1.42707765      -0.05238345      -0.42944730
Si       2.70659761       2.76696663      25.07689598        3       0.53749917      -0.37033111      -0.94831415
Si       4.36072553       3.93889924      23.63003176        3      -2.02903530       1.85936403       1.08646754
Si       0.11712430      -0.05368810      25.27730124        3      -2.48869578       2.41849748      -4.57860046
Si       1.14174798       4.00508990      26.31996491        3       4.71012826      -2.09194541       3.08474554
Si       2.85095680       0.17832517      22.39020290        3      -0.54155178      -1.72551969      -0.14478365
Si       4.13099471       1.29234014      26.32952058        3       0.22501625       2.49654309      -0.15524425
Si       0.15362347       2.73509591      22.16126914        3      -5.98233213      -7.09544724       4.80334674
Si       1.40218585       1.29672291      29.22029740        2      -0.39425464       0.29969736      -0.83077213
Si       2.86994920       2.75550812      30.38147514        2      -1.61279119      -1.87572939       1.79896325
Si       3.92048170       4.07010606      29.01531202        2       1.83531969       1.37283359      -0.64524893
Si      -0.10423660      -0.10297117      30.57037596        2       0.82733516      -0.21145974      -1.19964742
Si       1.39752504       3.96682456      31.79006961        2      -0.43966503       0.04718907       0.02388741
Si       2.83569873       0.13354829      27.61315983        2      -3.06027589      -1.88108466       1.40136558
Si       3.97547811       1.18173648      31.88473953        2       3.30913541       4.33401955      -2.07652411
Si      -0.01828184       2.76103212      27.78781242        2      -0.15396331      -1.55424346       0.66576164
Si       1.49036973       1.44424825      34.50151407        1       0.09036152      -0.60279555       0.22912304
Si       2.81427550       2.78760610      35.96121647        1       0.44405844       0.05367329      -3.49502226
Si       4.00247602       4.15464706      34.48932140        1       0.55073643       0.02321020       0.27025107
Si      -0.01037828       0.09987494      35.73772279        1       0.10539461       0.05509790       0.89288192
Si       1.42099082       3.98091073      36.99100975        1      -2.75656651       2.62239055       1.60037110
Si       2.77321067      -0.01523579      33.01672165        1      -3.42406085      -1.95986174       2.73002483
Si       3.87358042       1.41805489      37.17820000        1       2.20179146      -2.87421517       1.55995791
Si       0.02240053       2.77317704      33.33800704        1      -0.42633092      -0.78929582      -1.47625393
48
Lattice="7.679179643685906 0.0 0.0 0.0 5.43 0.0 0.0 0.0 33.11774402013624" Properties=species:S:1:pos:R:3:tags:I:1:forces:R:3 config_type=slab-displaced miller=110 energy=-251.22413099705594 label_model=mpa-0 structure_key=71103f53bd48d245b725054cf3774555e98e25b93b6f6995031913e42e2a85ba pbc="T T F"
Si       7.64186837       4.04228411       7.94257471        6       0.77235727       0.18253543      -0.49632099
Si       3.87226142       2.73393151       6.01277979        6      -0.24747735      -0.48550821      -0.10628838
Si       1.91030974       1.37945790       6.00896082        6       0.64141220       0.15824596      -0.28838172
Si       1.90869400       0.03983862       7.88822464        6       0.02142072      -0.63338676       0.23669867
Si       5.73701240       1.31436584       5.97997463        6       0.48116341       0.62348084      -0.19917261
Si       5.84971688       0.02218548       7.90618878        6      -1.44389653      -0.48181226      -0.04566608
Si       3.78432954       3.96231664       7.99585114        6       0.67297642       1.78916935      -1.30273365
Si       0.06429752       2.70687149       5.98975384        6      -0.90889430      -0.14507775       0.03383252
Si       3.83596735       4.13502836      11.76503961        5      -0.13928739      -0.51474490      -0.15909216
Si       7.67750725       2.71655489       9.83363877        5      -0.02980676       0.32798710       0.54382991
Si       5.79685342       1.35011609       9.81988894        5      -0.24129444       0.03956872       0.23594681
Si       5.69087791       0.04664403      11.77994943        5       0.88694761      -0.09045589      -0.15032332
Si       1.94510813       1.47142525       9.76816911        5      -0.04017879      -0.96802436       0.64857385
Si       1.89305133      -0.04524781      11.72465993        5       0.18060991       0.95892692      -0.30556226
Si       7.67650920       4.09576349      11.80587410        5      -0.67119480      -0.09798148      -0.72624277
Si       3.88337631       2.74941542       9.84785252        5       0.18330209      -0.60019440       1.02728336
Si       7.63196100       4.13691802      15.52477232        4       1.03386301      -0.31072875       0.86726860
Si       3.82335384       2.71895139      13.62280618        4       0.58408289      -0.20683247       0.04905117
Si       1.94652104       1.34965403      13.63942707        4      -0.10125343      -0.14308727       0.26584390
Si       2.03449473       0.08469826      15.66849459        4      -0.71487044      -0.90159835      -0.96282446
Si       5.83365074       1.35415520      13.69990341        4      -0.79699625       0.65518461      -0.60999540
Si       5.72204497       0.03119907      15.53324693        4       0.24303981       0.21494656       1.17991864
Si       3.91089029       4.03890142      15.53355454        4      -0.65983753       0.05631133       0.63249884
Si       7.70494981       2.71345425      13.64565147        4       0.22863570       0.06339627       0.39449322
Si       3.77661239       4.07749199      19.44455163        3       0.45405743       0.50048722      -0.05324205
Si       7.69881967       2.66268073      17.54879962        3      -0.43372805       1.00417165      -0.67416063
Si       5.72910519       1.43302934      17.57979552        3       0.10204537      -0.98576961      -0.38042376
Si       5.71962439      -0.04191422      19.46447027        3       0.04515217       0.18133505      -0.29012341
Si       1.89788160       1.36238692      17.55446735        3       0.88532193       0.14756172       0.54500470
Si       1.93772711      -0.00137714      19.51020162        3      -0.72501688      -0.04967459      -0.75125971
Si       7.65239363       4.04799525      19.45555051        3       0.32839328       0.61708688      -0.56037852
Si       3.85866047       2.79177238      17.59289454        3      -0.53607181      -0.48782883      -1.07425623
Si       0.06846598       4.05425202      23.26452821        2      -0.69501786      -0.18004074       0.01770535
Si       3.83496562       2.72863139      21.26472380        2       0.08629432      -0.09724842       0.72327765
Si       2.00931324       1.32756309      21.35791806        2      -0.99475399       0.61332829       0.31252839
Si       1.89541594      -0.02075682      23.25460096        2       0.94332906       0.15479474       0.17093894
Si       5.65536286       1.32690764      21.34603252        2       1.32699264       0.23537569       0.35857056
Si       5.83046096       0.05203135      23.36865704        2      -0.35694745      -0.55540032      -0.91021298
Si       3.89246612       4.07267098      23.18120480        2      -0.12869259      -0.09253919       1.07107779
Si       7.70645661       2.76008250      21.31297587        2      -0.30822564      -1.25854777       0.58061925
Si       3.83083298       4.17177117      27.12806403        1      -0.18373775      -1.03671411      -0.11615727
Si       0.07996415       2.65411448      25.16875795        1      -0.62853737       0.91957759       0.58698244
Si       5.80153846       1.38097348      25.23472409        1      -0.12576915       0.24763686       0.36346795
Si       5.69410113      -0.02725177      27.08180397        1       0.87167265       0.34119058       0.14565095
Si       1.87027550       1.26756392      25.23392875        1       1.17245731       0.15690000      -0.00201148
Si       1.92163223      -0.05498463      27.13816462        1      -0.46476397       0.41953175       0.18478809
Si       7.65554982       4.12870377      27.11659010        1      -0.07381543      -0.53669925      -0.34790611
Si       3.86460921       2.69715372      25.29002833        1      -0.49546125       0.25116460      -0.66311560
48
Lattice="7.679179643685906 0.0 0.0 0.0 5.43 0.0 0.0 0.0 33.11774402013624" Properties=species:S:1:pos:R:3:tags:I:1:forces:R:3 config_type=slab-displaced miller=110 energy=-236.8494757577075 label_model=mpa-0 structure_key=eb066aaa6d6e00ef4a1ce9771bb692bee7396013eed2cc9af8b9eb606da579e3 pbc="T T F"
Si       7.92974256       3.96070967       8.10576323        6      -1.29311036       3.43650916      -5.07841030
Si       3.84785971       2.81270228       5.95453340        6      -1.01844213      -0.08284858       0.23930146
Si       1.72095962       1.50294852       6.23190756        6       4.84193821      -2.33362273      -0.22012964
Si       1.85902248       0.05898304       7.99150407        6       2.31215289      -0.76423351      -0.13137562
Si       5.66265930       1.43828093       5.99239168        6       1.15566844       0.36222036      -0.56388202
Si       5.84896325       0.20555842       7.89096116        6       0.84600862      -2.50745680      -0.78391074
Si       4.09057895       4.04260569       7.98506040        6      -1.16051334       2.27568413      -2.38059980
Si       0.11438230       2.71140358       6.08669145        6      -4.75250073       2.73525004      -0.26817683
Si       4.04375977       4.20386368      11.62362110        5      -8.55262552      -6.56985279       0.63085730
Si       7.58319526       2.79681683       9.69529787        5      -0.97008642      -4.17903883       5.52482695
Si       5.55489590       1.30837100       9.76163461        5       3.71290294      -1.32182940       1.84667714
Si       5.60005619      -0.14738209      11.70173500        5       7.77231191       6.61813208       0.91381883
Si       1.89844397       1.34700350       9.88433398        5       0.17816524       2.44898140      -1.30864615
Si       1.92604800      -0.07113051      11.54472544        5      -0.52319339      -0.70697003       2.91481607
Si       7.50086501       3.99372445      11.79658232        5       1.31255999       1.27120421      -2.59197394
Si       4.04148935       2.72627912       9.69271659        5      -3.98372274       1.01383507       2.48834534
Si       7.69468882       4.12643264      15.58104438        4       0.20441254       0.26210970       1.21608309
Si       3.74959575       2.47539898      13.76619547        4       3.55599059       2.87695276      -0.08831080
Si       1.81279879       1.60907791      13.61495827        4      -1.63976982      -3.21362811      -0.49668860
Si       2.09255574      -0.03310103      15.62150312        4      -7.09264940       5.26953458      -0.90363455
Si       5.99762730       1.19635177      13.83755029        4      -1.12002545       5.08241520      -8.51437557
Si       5.82209647       0.14761113      15.40929114        4      -1.60870152      -5.37050488       9.23471182
Si       3.65869903       4.25136485      15.72400234        4       7.40694916      -5.63359531      -0.37464603
Si       7.54955959       2.90248456      13.67319771        4       0.28526081      -1.49922898       1.03752228
Si       3.78851239       3.85994899      19.32199880        3       0.75102043       2.41417417       2.29892372
Si       7.69116134       2.65615420      17.56428026        3      -1.68551592       0.57972729      -1.18519069
Si       5.66223223       1.37989466      17.69607282        3       2.05725536      -2.12146034      -0.73549853
Si       5.64160858      -0.07350552      19.76975054        3       0.56328689      -2.49146771      -3.91194518
Si       1.91456181       1.50338625      17.49154084        3      -0.03538037      -3.00573454       0.37770728
Si       1.93586012      -0.27848018      19.35177007        3      -1.10915491       2.60136481       0.43421080
Si       7.64004042       3.84653357      19.48195192        3      -0.31279936       1.99675653       0.33494793
Si       3.84062817       2.58096437      17.63317748        3      -0.24222291       0.95519334      -3.03073195
Si      -0.04320556       4.19307372      23.25833596        2       1.18715422      -1.59201124      -0.49396865
Si       3.82376010       2.76076302      21.30905352        2      -1.96012939       0.57665516       1.13128658
Si       1.78969827       1.45203448      21.42759123        2       1.09320806      -0.59846489      -2.21827543
Si       1.95441274      -0.03117459      23.07355708        2      -1.46369784       0.62434426       1.77445752
Si       5.61633569       1.50364194      21.16201077        2       0.57937975      -0.24273133       3.20610103
Si       5.92741206       0.12557613      23.28853992        2      -2.79747513       0.12392249      -2.15976412
Si       3.75484152       4.15993051      23.29513720        2       2.82396190      -1.24194339       0.29721162
Si       7.51368924       2.64647860      21.40638774        2       0.76968968       0.73983654       0.69251318
Si       3.78542931       4.02535038      27.26886126        1       0.74193289      -0.54241838      -0.75888405
Si      -0.06390532       2.87340230      25.21652002        1       0.31302634      -1.45430238      -1.70504892
Si       5.82983319       1.36481767      25.10066254        1       0.82337920      -0.28074672       1.90844982
Si       5.76265246      -0.06051348      27.11847009        1      -2.66819440       2.09133233      -0.24789099
Si       1.78776331       1.40574526      25.07859379        1       1.31527159      -0.33195930       0.12800618
Si       2.02068646       0.01687150      27.02990359        1      -1.81889023      -0.23947331      -0.31708123
Si       7.43411059       4.11694564      26.96370954        1       3.74194431       0.06587053       1.80765386
Si       3.97421010       2.56680053      25.23062696        1      -2.53603069       1.90351735       0.03061050
48
Lattice="7.679179643685906 0.0 0.0 3.8395898218429525 6.650364651656329 0.0 0.0 0.0 28.458812798923255" Properties=species:S:1:pos:R:3:tags:I:1:forces:R:3 config_type=slab-displaced miller=111 energy=-251.04413007925115 label_model=mpa-0 structure_key=179a2c6338e4ced2fa05854f24263104ab6c851eb0668a513e32e51337ad1798 pbc="T T F"
Si      -0.09181044       0.03619454       6.76331089        6       0.00712995      -0.14003797       0.09658047
Si       3.80302499       2.26412853       5.97895400        6       1.22855940      -0.91974893      -0.56163265
Si       2.01778723       3.25957953       6.80715967        6      -1.55195194       1.06769896      -0.07320951
Si       5.67666029       5.60980412       5.99658068        6       0.40486154      -0.44461339       0.04377702
Si       3.82708839       0.01862530       6.78826570        6      -0.30366139       0.17591234      -0.20331462
Si       7.68374521       2.22729976       5.98619210        6       0.06879650       0.33363401      -0.03401625
Si       5.73975220       3.32206752       6.79371149        6       0.02906659       0.40092909      -0.56219874
Si       9.54459723       5.54375670       5.93354444        6       0.08587538      -0.42508206       0.11710005
Si       7.65161206       4.43188578       9.80856474        5       0.31175521       0.61705357       0.95243279
Si       0.04810675      -0.03451807       9.13233926        5      -1.26620802       0.84405537      -0.29018202
Si       5.71536541       1.15779497       9.93812922        5       0.35445318      -0.17465527      -1.01294199
Si       1.87885223       3.28066742       9.13140460        5       0.45353383       1.02296919      -0.09792815
Si       3.83216089       4.50375047       9.90593849        5      -0.43505847      -1.19428039       0.28469029
Si       7.57161189       6.74961329       9.15582897        5       1.07211543      -0.76607972      -0.28692505
Si       1.85493520       1.13826585       9.85615256        5       0.03424433       0.00488159       1.01500263
Si       5.73942481       3.40613336       9.11878482        5      -0.34903833      -0.64827251       0.10201707
Si       3.85412408       2.24585913      13.13571224        4       0.07158654      -1.07657093      -0.75589517
Si       7.67394110       4.39081169      12.27507615        4       0.02658895       1.83976466      -1.14170608
Si       5.73346230       5.56835032      12.95697573        4       0.15591147      -0.18204468       0.81869793
Si       5.72311174       1.07518620      12.19775204        4       0.41825042       1.00603695       1.09574460
Si       7.65764579       2.35401076      13.07989409        4       0.05210389      -2.47881341       0.09354212
Si       3.85623178       4.32582179      12.25718497        4      -0.27238094       1.39399027      -0.18173110
Si       9.60793920       5.57562759      13.00254978        4       0.07694333      -0.80140608       0.75611075
Si       1.95549173       1.14755255      12.23716632        4      -0.61753789       0.38060557       0.16496892
Si       0.02427491       0.03917624      16.12160662        3      -0.28088878      -0.09972109       0.75529700
Si       3.88350840       2.21128579      15.41078139        3      -1.17950868       0.05886881       0.69419262
Si       1.84694326       3.37451079      16.22261641        3       1.12304384      -0.36477517       0.15457941
Si       5.71840383       5.53386901      15.42467541        3       0.61731094       0.09193920      -0.76768146
Si       3.80633192       0.02999411      16.28279730        3       0.00574358      -0.22929123      -0.63167968
Si       7.69633393       2.24663502      15.44037304        3      -0.65278331       0.23600745      -0.40179335
Si       5.70117422       3.32436369      16.20213716        3       0.77606280       0.20090164      -0.00922589
Si       9.59116919       5.56721634      15.47903058        3      -0.26469595       0.32241182      -0.81286143
Si       7.68852841       4.50367519      19.32706051        2       0.18774376      -0.25813613       0.35832341
Si       0.07656146       0.07796683      18.52462373        2      -0.64655559      -0.57322193      -0.06223485
Si       5.74946104       1.12319931      19.32992477        2       0.64509765       0.50697716      -0.07812904
Si       1.89805018       3.32567542      18.59408014        2       0.23525442      -0.15841889      -0.10895675
Si       3.84000270       4.44893323      19.36036425        2       0.07092499       0.28331007      -0.35074706
Si       3.84212504       0.05359001      18.59668396        2       0.60441922      -0.42318094      -0.34490928
Si       1.99701938       1.04589927      19.37820188        2      -0.77893669       1.05276198      -0.43048829
Si       5.81572284       3.41121008      18.52051602        2      -0.57669276      -0.55990221       0.39403275
Si       3.83799348       2.21208541      22.53524643        1      -0.46431757      -0.22525959      -0.11285526
Si       7.65435637       4.40011966      21.71497467        1       0.32653990       0.23590084      -0.41854074
Si       5.74436513       5.42679409      22.46591312        1      -0.03682201       1.15005703       0.26034851
Si       5.74981771       1.14243313      21.69116806        1      -0.15744587      -0.37403836       0.06618725
Si       7.62799562       2.24372723      22.49257539        1       0.63283487      -0.69933709       0.13203527
Si       3.82037990       4.42850997      21.71834214        1      -0.29602630      -0.28149857      -0.08936683
Si       9.57073401       5.52835866      22.49454855        1       0.04061953       0.30863891       0.05236929
Si       1.89292432       1.07044987      21.64323707        1       0.01313908      -0.03691995       1.41312114
48
Lattice="7.679179643685906 0.0 0.0 3.8395898218429525 6.650364651656329 0.0 0.0 0.0 28.458812798923255" Properties=species:S:1:pos:R:3:tags:I:1:forces:R:3 config_type=slab-displaced miller=111 energy=-241.120249915005 label_model=mpa-0 structure_key=2a61b97459f87dedb45e2339ccba08fe589571e8613ab82cded3aa05afde5113 pbc="T T F"
Si       0.03180932       0.01312787       6.96399620        6      -0.80477540      -2.23989310      -0.80245548
Si       3.71016915       2.33536928       6.10668430        6       1.28424525      -0.54038846       0.37563654
Si       1.84425979       3.44550476       6.84643247        6      -1.02687711      -0.67396769      -0.26253369
Si       5.60074648       5.77493143       5.73717086        6       1.64900573      -1.20434488       1.02699538
Si       3.90770104       0.01044293       6.87213320        6      -0.91962972       0.30402339      -2.02395723
Si       7.63757278       1.96417910       6.05706995        6      -0.46319081       4.24896250      -0.49873034
Si       5.68889798       3.50703285       6.96543158        6       0.18713965      -0.30304343      -3.82707727
Si       9.60247990       5.57760562       5.83858549        6       0.10163540       0.34272041       0.46134981
Si       7.52326315       4.39137613       9.97122062        5       2.15326243       1.93919515       0.73295180
Si      -0.12918751       0.05320861       9.14207830        5       2.57072666      -0.81104034       1.94162609
Si       5.85510391       1.18312409      10.00033980        5      -1.31305903       0.49420925      -1.57835344
Si       1.73595170       3.25699747       9.20433461        5       1.13819308       3.82560645      -1.33234845
Si       4.15928974       4.40466024       9.88364639        5      -6.10091328       2.82393948       1.53521699
Si       7.82264625       6.69168136       9.11880343        5      -1.13388668       0.01526314       1.79710232
Si       2.00794928       1.39235925      10.09057358        5       0.18023048      -4.53372119      -2.14069614
Si       5.76786090       3.42392070       9.12971789        5       2.30560730      -3.44010712      -0.13562831
Si       3.92274710       2.19102826      13.05223481        4      -0.45378803       0.15244034      -2.25076385
Si       7.67709770       4.50805478      12.33065375        4       1.60751791      -1.84122276      -0.35238343
Si       5.82665905       5.52446182      12.97421426        4      -2.30369152       0.38044103       0.30913401
Si       5.92991440       1.19068428      12.18459378        4      -5.60657722      -3.16824098      -0.02462192
Si       7.58750403       1.96261754      12.94409247        4       5.36348301       4.53225349       3.33856135
Si       3.60393329       4.40847224      12.15436636        4       3.88097971      -1.56335650      -0.44804144
Si       9.76180986       5.52286914      13.11607709        4      -3.18141300       1.97529678       1.34059314
Si       1.91134100       1.11718692      12.22416166        4       0.91388047      -0.43077010       2.23849463
Si       0.12565557      -0.13540605      16.29655549        3      -0.91391138       1.31283501      -3.07870393
Si       3.79441991       2.07881423      15.21895511        3       0.84766675       0.83832641       3.19367084
Si       2.05288910       3.28381440      16.36869599        3      -0.00919418      -0.07876679      -3.89742485
Si       5.82942861       5.53376797      15.34189641        3       0.70378340      -0.02206019       0.41205003
Si       3.95600116       0.00818678      16.36308412        3      -1.96510310       0.47499726      -1.20928920
Si       7.84330092       2.26876627      15.38515643        3      -1.01242213      -1.18723582       0.21257194
Si       5.78834136       3.33105117      16.18195274        3      -0.12186500      -0.84207900      -0.87006550
Si       9.50423462       5.51795045      15.60638707        3       2.60278002      -0.82023910      -1.67563586
Si       7.50561726       4.57198643      19.39422055        2       1.02564069      -2.79083133       0.81151766
Si      -0.05477682      -0.21983458      18.42725800        2      -0.34658600       1.44729144       3.43763444
Si       5.62327974       1.29097076      19.42078493        2       1.44164339      -2.07675045      -1.96471404
Si       1.96138432       3.35809598      18.47899483        2      -3.06369059      -0.91550778       2.80612302
Si       3.79188637       4.22648815      19.21372168        2       0.27045217       1.99352474       2.70471868
Si       3.98055224      -0.08893979      18.61169019        2      -1.22932427       2.43847961       0.14323349
Si       1.86934539       1.08579370      19.24165916        2       0.28970468      -0.62716450      -0.24216148
Si       5.65584437       3.32156676      18.51634939        2       1.70217681       0.61869991      -0.67820224
Si       3.67672898       2.18007804      22.69478979        1       1.01229352      -0.09715257      -0.39975760
Si       8.00782427       4.42233441      21.79801532        1      -2.76530877       0.11343050      -0.61472406
Si       5.52653652       5.59696163      22.46914820        1       2.68851824      -1.24114916       0.55556973
Si       5.72240479       1.25445951      21.58681833        1      -0.08012856      -0.17246787       3.15299409
Si       7.77836758       2.20525981      22.48235544        1      -0.64788007      -0.10817456      -0.08314495
Si       3.70005829       4.45305848      21.92157617        1       0.09504469      -1.58034076      -1.99129642
Si       9.65877417       5.66634470      22.62881080        1      -0.40964752       1.79965089       0.40962552
Si       1.92748216       0.99298216      21.62198638        1      -0.14274811       1.23842924      -0.55466037
48
Lattice="5.43 0.0 0.0 0.0 5.43 0.0 0.0 0.0 47.2225" Properties=species:S:1:pos:R:3:tags:I:1:forces:R:3 config_type=slab-displaced miller=100 energy=-250.40563620667533 label_model=mpa-0 structure_key=6664a49ff56ee524fc705b4be5af0f8ce15eab3a966eaf3f4dc0faf58cd3cb05 pbc="T T F"
Si       1.32531416       1.29490898       9.32930427        6       0.35578277       1.81018725       0.07846812
Si       2.73157193       2.77519537      10.73554570        6      -0.34174743      -0.75000198      -0.35102033
Si       4.15641212       4.02120179       9.35641189        6      -0.81576427       0.61039269       0.34876159
Si       0.02652401       0.02880025      10.63728496        6      -0.38991089      -0.74467066       1.28888716
Si       1.36425480       4.04134213      12.14388075        6      -0.10461526       0.79927857      -0.70239890
Si       2.59219203      -0.08146811       8.08301669        6       0.33486353      -0.95242438      -0.67003424
Si       4.05727873       1.32977826      12.04896083        6       0.11816162      -0.00593153       0.26286383
Si      -0.04083784       2.77319275       7.94636368        6       1.06094718      -0.50648743      -0.52521651
Si       1.37791498       1.36564944      14.86625215        5      -0.52524031      -0.47953936      -1.16163535
Si       2.62603607       2.68412158      16.16133595        5       1.13885836       0.51080073       0.43610387
Si       3.98962859       4.01766056      14.71670427        5       1.27636853      -0.12704614       1.91592613
Si       0.07054910       0.02030554      16.20004267        5      -1.25922087      -0.68562802      -0.22196493
Si       1.32084222       3.99357483      17.56716233        5       0.80111595       1.28239109      -0.75338547
Si       2.74220569      -0.06034694      13.50987507        5      -0.83569128       1.31999354      -0.99354733
Si       4.05182328       1.38601300      17.55821203        5       0.44164574       0.12597503      -0.79327461
Si      -0.00486776       2.73559713      13.43434739        5      -0.11921889      -0.95600966       0.15178537
Si       1.26659973       1.27632879      20.26885995        4       1.36081184       1.78076374      -1.22060129
Si       2.76811921       2.70159574      21.61106536        4      -1.23577562      -0.13535140      -1.12062796
Si       3.99094535       3.99775518      20.16759485        4       0.27531763       1.24291490       0.36109276
Si      -0.03351433       0.03046261      21.50277737        4      -1.08430523      -1.50892877       1.52456421
Si       1.47290355       4.07267863      22.91499713        4      -1.38804343       0.22796037      -0.32374737
Si       2.71069827       0.03957047      18.82339269        4      -0.62337971      -0.63378863       0.63553347
Si       4.01716471       1.43880015      22.93507177        4       0.88963488      -1.45292658       0.38131376
Si      -0.02987811       2.80157577      18.85516432        4      -0.09706454      -1.61805046       0.81372072
Si       1.29285596       1.33591083      25.66101249        3       0.33867873       0.18723676      -0.10462644
Si       2.73405468       2.62444908      27.00689792        3      -0.47534648       1.31885975      -0.43088042
Si       4.06915033       4.11698845      25.59558792        3      -0.30644044      -1.05484107      -0.11941828
Si       0.00312174      -0.07189286      26.93281504        3      -0.54121356       0.68547221       1.05542764
Si       1.32683475       4.09103911      28.36485715        3       1.04504851       0.03621367      -0.17976275
Si       2.65436313       0.02356650      24.29857017        3       0.57797108       0.38805262      -0.00888603
Si       4.04189044       1.39422982      28.37928848        3       1.52150785      -0.30169532       0.07686495
Si       0.03240665       2.68931074      24.23512109        3      -0.02709870       0.72469383       0.24433340
Si       1.40614715       1.32957034      31.13510740        2      -0.14068197       0.41832312       0.36063862
Si       2.68002694       2.73358883      32.55194371        2       0.13452011       0.63979171      -1.15206418
Si       4.14970380       4.09815948      31.04505280        2      -1.32283036      -0.63614254       0.05171330
Si      -0.05565597      -0.00497297      32.38601598        2       0.54587908       0.63295623       0.90517619
Si       1.28827570       4.10367453      33.81975210        2      -0.02229655       0.03425658       0.65706591
Si       2.73221607       0.09963672      29.74202891        2      -0.01248411      -1.17464483      -0.25740648
Si       4.08128899       1.44982462      33.78424669        2      -0.48920159      -1.53167241       0.07658953
Si       0.13560935       2.73694178      29.78102603        2      -0.96247434      -0.48537071      -0.38671054
Si       1.28115105       1.40267567      36.40616549        1       0.78437735      -0.12159994       1.45999462
Si       2.71325200       2.74377501      37.87722149        1      -0.12812684      -0.33596119      -0.25795092
Si       4.11938044       4.09711749      36.51864002        1      -0.71051427       0.11445161       0.79712947
Si       0.01115317       0.03227414      37.85577307        1       0.20081572       0.14226680      -0.07413688
Si       1.27105946       4.02228286      39.21430406        1       0.00479571      -0.11113978       0.31008822
Si       2.72736795       0.03048938      35.26865280        1      -0.09986228      -0.05249389      -1.43851947
Si       4.04751409       1.29533361      39.27613576        1      -0.19470957       0.33222194       0.01820504
Si      -0.13984530       2.67373327      35.22208286        1       1.04615657       0.99689195      -0.96443120
48
Lattice="5.43 0.0 0.0 0.0 5.43 0.0 0.0 0.0 47.2225" Properties=species:S:1:pos:R:3:tags:I:1:forces:R:3 config_type=slab-displaced miller=100 energy=-238.7298753606114 label_model=mpa-0 structure_key=029b1a4ad315b7e53a1ef74ee50309d29e010e682b67172dab4711be8bb6e2e9 pbc="T T F"
Si       1.33135172       1.35559288       9.30135312        6      -0.90766277       0.79106073       1.76781413
Si       2.93428093       2.82584567      10.78791912        6      -0.87929056      -1.54674908      -1.29892365
Si       4.05333713       4.10296726       9.20664860        6       0.15671894      -0.25231119      -0.89963426
Si      -0.21053707      -0.19512667      10.84948438        6      -0.01882239       2.57178942      -1.64540487
Si       1.24847904       3.93176557      11.79634086        6       1.48443103       0.02435241       2.52160915
Si       2.58048970       0.13255954       7.97897032        6       1.22389916      -1.22555063      -0.78863845
Si       4.08434817       1.38005668      12.26221475        6      -1.69001801      -2.01408228      -1.93035129
Si       0.06662745       2.62920872       7.61843568        6      -0.41746636       0.45793534       1.09595512
Si       1.17354329       1.19920281      14.82481401        5       0.25141663       0.47133337      -2.07274269
Si       2.46197287       2.59521631      16.06121649        5       1.72975450       1.19370121       0.64615722
Si       4.10944512       4.03048949      14.80246276        5      -0.77679215      -0.48251034       1.06881989
Si      -0.08375826       0.00993187      16.28261649        5       1.77425392      -3.08233894      -5.62997547
Si       1.29623613       4.33261102      17.38305146        5       3.46534408      -2.98001983       3.20508738
Si       2.76322570      -0.14590770      13.44980329        5      -1.96587891       0.54309068      -0.39078938
Si       4.10945174       1.14037095      17.25780052        5      -3.39521796       7.43969583       2.74763463
Si      -0.13963967       2.77329497      13.32039779        5       2.87792270       0.37362617       1.79434562
Si       1.25914842       1.19493548      20.31198178        4       2.10445462       2.07639824      -1.47658671
Si       2.75366016       2.82476457      21.44334656        4      -2.31604054      -1.98412340       1.82119416
Si       4.10106534       4.06664642      20.28465683        4       1.07738650       2.04417768      -1.86267347
Si      -0.00265435       0.03720332      21.68742311        4       2.11571172      -4.51180517      -0.85352954
Si       1.24142693       3.84853148      23.11087197        4       7.26241588       7.50085736      -6.01918415
Si       2.95639525       0.34543303      18.83761068        4      -2.53310526      -3.08257143       2.25293937
Si       4.10122796       1.25896152      22.65563911        4      -2.83290904       3.65030229       3.27279910
Si       0.14439088       2.78930585      18.95985877        4      -0.74483647      -0.47446216      -1.49321079
Si       1.22012028       1.37402153      25.77620414        3       1.42707765      -0.05238345      -0.42944730
Si       2.70659761       2.76696663      27.07689598        3       0.53749917      -0.37033111      -0.94831415
Si       4.36072553       3.93889924      25.63003176        3      -2.02903530       1.85936403       1.08646754
Si       0.11712430      -0.05368810      27.27730124        3      -2.48869578       2.41849748      -4.57860046
Si       1.14174798       4.00508990      28.31996491        3       4.71012826      -2.09194541       3.08474554
Si       2.85095680       0.17832517      24.39020290        3      -0.54155178      -1.72551969      -0.14478365
Si       4.13099471       1.29234014      28.32952058        3       0.22501625       2.49654309      -0.15524425
Si       0.15362347       2.73509591      24.16126914        3      -5.98233213      -7.09544724       4.80334674
Si       1.40218585       1.29672291      31.22029740        2      -0.39425464       0.29969736      -0.83077213
Si       2.86994920       2.75550812      32.38147514        2      -1.61279119      -1.87572939       1.79896325
Si       3.92048170       4.07010606      31.01531202        2       1.83531969       1.37283359      -0.64524893
Si      -0.10423660      -0.10297117      32.57037596        2       0.82733516      -0.21145974      -1.19964742
Si       1.39752504       3.96682456      33.79006961        2      -0.43966503       0.04718907       0.02388741
Si       2.83569873       0.13354829      29.61315983        2      -3.06027589      -1.88108466       1.40136558
Si       3.97547811       1.18173648      33.88473953        2       3.30913541       4.33401955      -2.07652411
Si      -0.01828184       2.76103212      29.78781242        2      -0.15396331      -1.55424346       0.66576164
Si       1.49036973       1.44424825      36.50151407        1       0.09036152      -0.60279555       0.22912304
Si       2.81427550       2.78760610      37.96121647        1       0.44405844       0.05367329      -3.49502226
Si       4.00247602       4.15464706      36.48932140        1       0.55073643       0.02321020       0.27025107
Si      -0.01037828       0.09987494      37.73772279        1       0.10539461       0.05509790       0.89288192
Si       1.42099082       3.98091073      38.99100975        1      -2.75656651       2.62239055       1.60037110
Si       2.77321067      -0.01523579      35.01672165        1      -3.42406085      -1.95986174       2.73002483
Si       3.87358042       1.41805489      39.17820000        1       2.20179146      -2.87421517       1.55995791
Si       0.02240053       2.77317704      35.33800704        1      -0.42633092      -0.78929582      -1.47625393
48
Lattice="7.679179643685906 0.0 0.0 0.0 5.43 0.0 0.0 0.0 37.11774402013624" Properties=species:S:1:pos:R:3:tags:I:1:forces:R:3 config_type=slab-displaced miller=110 energy=-251.224130997056 label_model=mpa-0 structure_key=b14245087469ce40f1fe03474e2aeaa09c0851060eb9e6cf2d8ccc0d573a028d pbc="T T F"
Si       7.64186837       4.04228411       9.94257471        6       0.77235727       0.18253543      -0.49632099
Si       3.87226142       2.73393151       8.01277979        6      -0.24747735      -0.48550821      -0.10628838
Si       1.91030974       1.37945790       8.00896082        6       0.64141220       0.15824596      -0.28838172
Si       1.90869400       0.03983862       9.88822464        6       0.02142072      -0.63338676       0.23669867
Si       5.73701240       1.31436584       7.97997463        6       0.48116341       0.62348084      -0.19917261
Si       5.84971688       0.02218548       9.90618878        6      -1.44389653      -0.48181226      -0.04566608
Si       3.78432954       3.96231664       9.99585114        6       0.67297642       1.78916935      -1.30273365
Si       0.06429752       2.70687149       7.98975384        6      -0.90889430      -0.14507775       0.03383252
Si       3.83596735       4.13502836      13.76503961        5      -0.13928739      -0.51474490      -0.15909216
Si       7.67750725       2.71655489      11.83363877        5      -0.02980676       0.32798710       0.54382991
Si       5.79685342       1.35011609      11.81988894        5      -0.24129444       0.03956872       0.23594681
Si       5.69087791       0.04664403      13.77994943        5       0.88694761      -0.09045589      -0.15032332
Si       1.94510813       1.47142525      11.76816911        5      -0.04017879      -0.96802436       0.64857385
Si       1.89305133      -0.04524781      13.72465993        5       0.18060991       0.95892692      -0.30556226
Si       7.67650920       4.09576349      13.80587410        5      -0.67119480      -0.09798148      -0.72624277
Si       3.88337631       2.74941542      11.84785252        5       0.18330209      -0.60019440       1.02728336
Si       7.63196100       4.13691802      17.52477232        4       1.03386301      -0.31072875       0.86726860
Si       3.82335384       2.71895139      15.62280618        4       0.58408289      -0.20683247       0.04905117
Si       1.94652104       1.34965403      15.63942707        4      -0.10125343      -0.14308727       0.26584390
Si       2.03449473       0.08469826      17.66849459        4      -0.71487044      -0.90159835      -0.96282446
Si       5.83365074       1.35415520      15.69990341        4      -0.79699625       0.65518461      -0.60999540
Si       5.72204497       0.03119907      17.53324693        4       0.24303981       0.21494656       1.17991864
Si       3.91089029       4.03890142      17.53355454        4      -0.65983753       0.05631133       0.63249884
Si       7.70494981       2.71345425      15.64565147        4       0.22863570       0.06339627       0.39449322
Si       3.77661239       4.07749199      21.44455163        3       0.45405743       0.50048722      -0.05324205
Si       7.69881967       2.66268073      19.54879962        3      -0.43372805       1.00417165      -0.67416063
Si       5.72910519       1.43302934      19.57979552        3       0.10204537      -0.98576961      -0.38042376
Si       5.71962439      -0.04191422      21.46447027        3       0.04515217       0.18133505      -0.29012341
Si       1.89788160       1.36238692      19.55446735        3       0.88532193       0.14756172       0.54500470
Si       1.93772711      -0.00137714      21.51020162        3      -0.72501688      -0.04967459      -0.75125971
Si       7.65239363       4.04799525      21.45555051        3       0.32839328       0.61708688      -0.56037852
Si       3.85866047       2.79177238      19.59289454        3      -0.53607181      -0.48782883      -1.07425623
Si       0.06846598       4.05425202      25.26452821        2      -0.69501786      -0.18004074       0.01770535
Si       3.83496562       2.72863139      23.26472380        2       0.08629432      -0.09724842       0.72327765
Si       2.00931324       1.32756309      23.35791806        2      -0.99475399       0.61332829       0.31252839
Si       1.89541594      -0.02075682      25.25460096        2       0.94332906       0.15479474       0.17093894
Si       5.65536286       1.32690764      23.34603252        2       1.32699264       0.23537569       0.35857056
Si       5.83046096       0.05203135      25.36865704        2      -0.35694745      -0.55540032      -0.91021298
Si       3.89246612       4.07267098      25.18120480        2      -0.12869259      -0.09253919       1.07107779
Si       7.70645661       2.76008250      23.31297587        2      -0.30822564      -1.25854777       0.58061925
Si       3.83083298       4.17177117      29.12806403        1      -0.18373775      -1.03671411      -0.11615727
Si       0.07996415       2.65411448      27.16875795        1      -0.62853737       0.91957759       0.58698244
Si       5.80153846       1.38097348      27.23472409        1      -0.12576915       0.24763686       0.36346795
Si       5.69410113      -0.02725177      29.08180397        1       0.87167265       0.34119058       0.14565095
Si       1.87027550       1.26756392      27.23392875        1       1.17245731       0.15690000      -0.00201148
Si       1.92163223      -0.05498463      29.13816462        1      -0.46476397       0.41953175       0.18478809
Si       7.65554982       4.12870377      29.11659010        1      -0.07381543      -0.53669925      -0.34790611
Si       3.86460921       2.69715372      27.29002833        1      -0.49546125       0.25116460      -0.66311560
48
Lattice="7.679179643685906 0.0 0.0 0.0 5.43 0.0 0.0 0.0 37.11774402013624" Properties=species:S:1:pos:R:3:tags:I:1:forces:R:3 config_type=slab-displaced miller=110 energy=-236.84947575770744 label_model=mpa-0 structure_key=99be0bb0b045a2bfe6fb2fa1ba568233e88fdb255e1ce04d7d48e9f6e39a5725 pbc="T T F"
Si       7.92974256       3.96070967      10.10576323        6      -1.29311036       3.43650916      -5.07841030
Si       3.84785971       2.81270228       7.95453340        6      -1.01844213      -0.08284858       0.23930146
Si       1.72095962       1.50294852       8.23190756        6       4.84193821      -2.33362273      -0.22012964
Si       1.85902248       0.05898304       9.99150407        6       2.31215289      -0.76423351      -0.13137562
Si       5.66265930       1.43828093       7.99239168        6       1.15566844       0.36222036      -0.56388202
Si       5.84896325       0.20555842       9.89096116        6       0.84600862      -2.50745680      -0.78391074
Si       4.09057895       4.04260569       9.98506040        6      -1.16051334       2.27568413      -2.38059980
Si       0.11438230       2.71140358       8.08669145        6      -4.75250073       2.73525004      -0.26817683
Si       4.04375977       4.20386368      13.62362110        5      -8.55262552      -6.56985279       0.63085730
Si       7.58319526       2.79681683      11.69529787        5      -0.97008642      -4.17903883       5.52482695
Si       5.55489590       1.30837100      11.76163461        5       3.71290294      -1.32182940       1.84667714
Si       5.60005619      -0.14738209      13.70173500        5       7.77231191       6.61813208       0.91381883
Si       1.89844397       1.34700350      11.88433398        5       0.17816524       2.44898140      -1.30864615
Si       1.92604800      -0.07113051      13.54472544        5      -0.52319339      -0.70697003       2.91481607
Si       7.50086501       3.99372445      13.79658232        5       1.31255999       1.27120421      -2.59197394
Si       4.04148935       2.72627912      11.69271659        5      -3.98372274       1.01383507       2.48834534
Si       7.69468882       4.12643264      17.58104438        4       0.20441254       0.26210970       1.21608309
Si       3.74959575       2.47539898      15.76619547        4       3.55599059       2.87695276      -0.08831080
Si       1.81279879       1.60907791      15.61495827        4      -1.63976982      -3.21362811      -0.49668860
Si       2.09255574      -0.03310103      17.62150312        4      -7.09264940       5.26953458      -0.90363455
Si       5.99762730       1.19635177      15.83755029        4      -1.12002545       5.08241520      -8.51437557
Si       5.82209647       0.14761113      17.40929114        4      -1.60870152      -5.37050488       9.23471182
Si       3.65869903       4.25136485      17.72400234        4       7.40694916      -5.63359531      -0.37464603
Si       7.54955959       2.90248456      15.67319771        4       0.28526081      -1.49922898       1.03752228
Si       3.78851239       3.85994899      21.32199880        3       0.75102043       2.41417417       2.29892372
Si       7.69116134       2.65615420      19.56428026        3      -1.68551592       0.57972729      -1.18519069
Si       5.66223223       1.37989466      19.69607282        3       2.05725536      -2.12146034      -0.73549853
Si       5.64160858      -0.07350552      21.76975054        3       0.56328689      -2.49146771      -3.91194518
Si       1.91456181       1.50338625      19.49154084        3      -0.03538037      -3.00573454       0.37770728
Si       1.93586012      -0.27848018      21.35177007        3      -1.10915491       2.60136481       0.43421080
Si       7.64004042       3.84653357      21.48195192        3      -0.31279936       1.99675653       0.33494793
Si       3.84062817       2.58096437      19.63317748        3      -0.24222291       0.95519334      -3.03073195
Si      -0.04320556       4.19307372      25.25833596        2       1.18715422      -1.59201124      -0.49396865
Si       3.82376010       2.76076302      23.30905352        2      -1.96012939       0.57665516       1.13128658
Si       1.78969827       1.45203448      23.42759123        2       1.09320806      -0.59846489      -2.21827543
Si       1.95441274      -0.03117459      25.07355708        2      -1.46369784       0.62434426       1.77445752
Si       5.61633569       1.50364194      23.16201077        2       0.57937975      -0.24273133       3.20610103
Si       5.92741206       0.12557613      25.28853992        2      -2.79747513       0.12392249      -2.15976412
Si       3.75484152       4.15993051      25.29513720        2       2.82396190      -1.24194339       0.29721162
Si       7.51368924       2.64647860      23.40638774        2       0.76968968       0.73983654       0.69251318
Si       3.78542931       4.02535038      29.26886126        1       0.74193289      -0.54241838      -0.75888405
Si      -0.06390532       2.87340230      27.21652002        1       0.31302634      -1.45430238      -1.70504892
Si       5.82983319       1.36481767      27.10066254        1       0.82337920      -0.28074672       1.90844982
Si       5.76265246      -0.06051348      29.11847009        1      -2.66819440       2.09133233      -0.24789099
Si       1.78776331       1.40574526      27.07859379        1       1.31527159      -0.33195930       0.12800618
Si       2.02068646       0.01687150      29.02990359        1      -1.81889023      -0.23947331      -0.31708123
Si       7.43411059       4.11694564      28.96370954        1       3.74194431       0.06587053       1.80765386
Si       3.97421010       2.56680053      27.23062696        1      -2.53603069       1.90351735       0.03061050
48
Lattice="7.679179643685906 0.0 0.0 3.8395898218429525 6.650364651656329 0.0 0.0 0.0 32.458812798923255" Properties=species:S:1:pos:R:3:tags:I:1:forces:R:3 config_type=slab-displaced miller=111 energy=-251.04413007925112 label_model=mpa-0 structure_key=1552c3debc296c78b235429fe20a5162c8abec58f40f1427245ddc65389d0f13 pbc="T T F"
Si      -0.09181044       0.03619454       8.76331089        6       0.00712995      -0.14003797       0.09658047
Si       3.80302499       2.26412853       7.97895400        6       1.22855940      -0.91974893      -0.56163265
Si       2.01778723       3.25957953       8.80715967        6      -1.55195194       1.06769896      -0.07320951
Si       5.67666029       5.60980412       7.99658068        6       0.40486154      -0.44461339       0.04377702
Si       3.82708839       0.01862530       8.78826570        6      -0.30366139       0.17591234      -0.20331462
Si       7.68374521       2.22729976       7.98619210        6       0.06879650       0.33363401      -0.03401625
Si       5.73975220       3.32206752       8.79371149        6       0.02906659       0.40092909      -0.56219874
Si       9.54459723       5.54375670       7.93354444        6       0.08587538      -0.42508206       0.11710005
Si       7.65161206       4.43188578      11.80856474        5       0.31175521       0.61705357       0.95243279
Si       0.04810675      -0.03451807      11.13233926        5      -1.26620802       0.84405537      -0.29018202
Si       5.71536541       1.15779497      11.93812922        5       0.35445318      -0.17465527      -1.01294199
Si       1.87885223       3.28066742      11.13140460        5       0.45353383       1.02296919      -0.09792815
Si       3.83216089       4.50375047      11.90593849        5      -0.43505847      -1.19428039       0.28469029
Si       7.57161189       6.74961329      11.15582897        5       1.07211543      -0.76607972      -0.28692505
Si       1.85493520       1.13826585      11.85615256        5       0.03424433       0.00488159       1.01500263
Si       5.73942481       3.40613336      11.11878482        5      -0.34903833      -0.64827251       0.10201707
Si       3.85412408       2.24585913      15.13571224        4       0.07158654      -1.07657093      -0.75589517
Si       7.67394110       4.39081169      14.27507615        4       0.02658895       1.83976466      -1.14170608
Si       5.73346230       5.56835032      14.95697573        4       0.15591147      -0.18204468       0.81869793
Si       5.72311174       1.07518620      14.19775204        4       0.41825042       1.00603695       1.09574460
Si       7.65764579       2.35401076      15.07989409        4       0.05210389      -2.47881341       0.09354212
Si       3.85623178       4.32582179      14.25718497        4      -0.27238094       1.39399027      -0.18173110
Si       9.60793920       5.57562759      15.00254978        4       0.07694333      -0.80140608       0.75611075
Si       1.95549173       1.14755255      14.23716632        4      -0.61753789       0.38060557       0.16496892
Si       0.02427491       0.03917624      18.12160662        3      -0.28088878      -0.09972109       0.75529700
Si       3.88350840       2.21128579      17.41078139        3      -1.17950868       0.05886881       0.69419262
Si       1.84694326       3.37451079      18.22261641        3       1.12304384      -0.36477517       0.15457941
Si       5.71840383       5.53386901      17.42467541        3       0.61731094       0.09193920      -0.76768146
Si       3.80633192       0.02999411      18.28279730        3       0.00574358      -0.22929123      -0.63167968
Si       7.69633393       2.24663502      17.44037304        3      -0.65278331       0.23600745      -0.40179335
Si       5.70117422       3.32436369      18.20213716        3       0.77606280       0.20090164      -0.00922589
Si       9.59116919       5.56721634      17.47903058        3      -0.26469595       0.32241182      -0.81286143
Si       7.68852841       4.50367519      21.32706051        2       0.18774376      -0.25813613       0.35832341
Si       0.07656146       0.07796683      20.52462373        2      -0.64655559      -0.57322193      -0.06223485
Si       5.74946104       1.12319931      21.32992477        2       0.64509765       0.50697716      -0.07812904
Si       1.89805018       3.32567542      20.59408014        2       0.23525442      -0.15841889      -0.10895675
Si       3.84000270       4.44893323      21.36036425        2       0.07092499       0.28331007      -0.35074706
Si       3.84212504       0.05359001      20.59668396        2       0.60441922      -0.42318094      -0.34490928
Si       1.99701938       1.04589927      21.37820188        2      -0.77893669       1.05276198      -0.43048829
Si       5.81572284       3.41121008      20.52051602        2      -0.57669276      -0.55990221       0.39403275
Si       3.83799348       2.21208541      24.53524643        1      -0.46431757      -0.22525959      -0.11285526
Si       7.65435637       4.40011966      23.71497467        1       0.32653990       0.23590084      -0.41854074
Si       5.74436513       5.42679409      24.46591312        1      -0.03682201       1.15005703       0.26034851
Si       5.74981771       1.14243313      23.69116806        1      -0.15744587      -0.37403836       0.06618725
Si       7.62799562       2.24372723      24.49257539        1       0.63283487      -0.69933709       0.13203527
Si       3.82037990       4.42850997      23.71834214        1      -0.29602630      -0.28149857      -0.08936683
Si       9.57073401       5.52835866      24.49454855        1       0.04061953       0.30863891       0.05236929
Si       1.89292432       1.07044987      23.64323707        1       0.01313908      -0.03691995       1.41312114
48
Lattice="7.679179643685906 0.0 0.0 3.8395898218429525 6.650364651656329 0.0 0.0 0.0 32.458812798923255" Properties=species:S:1:pos:R:3:tags:I:1:forces:R:3 config_type=slab-displaced miller=111 energy=-241.120249915005 label_model=mpa-0 structure_key=91ded442e92e2e805504a32a029ba7f7d1484ade403af764e52573440c7d5396 pbc="T T F"
Si       0.03180932       0.01312787       8.96399620        6      -0.80477540      -2.23989310      -0.80245548
Si       3.71016915       2.33536928       8.10668430        6       1.28424525      -0.54038846       0.37563654
Si       1.84425979       3.44550476       8.84643247        6      -1.02687711      -0.67396769      -0.26253369
Si       5.60074648       5.77493143       7.73717086        6       1.64900573      -1.20434488       1.02699538
Si       3.90770104       0.01044293       8.87213320        6      -0.91962972       0.30402339      -2.02395723
Si       7.63757278       1.96417910       8.05706995        6      -0.46319081       4.24896250      -0.49873034
Si       5.68889798       3.50703285       8.96543158        6       0.18713965      -0.30304343      -3.82707727
Si       9.60247990       5.57760562       7.83858549        6       0.10163540       0.34272041       0.46134981
Si       7.52326315       4.39137613      11.97122062        5       2.15326243       1.93919515       0.73295180
Si      -0.12918751       0.05320861      11.14207830        5       2.57072666      -0.81104034       1.94162609
Si       5.85510391       1.18312409      12.00033980        5      -1.31305903       0.49420925      -1.57835344
Si       1.73595170       3.25699747      11.20433461        5       1.13819308       3.82560645      -1.33234845
Si       4.15928974       4.40466024      11.88364639        5      -6.10091328       2.82393948       1.53521699
Si       7.82264625       6.69168136      11.11880343        5      -1.13388668       0.01526314       1.79710232
Si       2.00794928       1.39235925      12.09057358        5       0.18023048      -4.53372119      -2.14069614
Si       5.76786090       3.42392070      11.12971789        5       2.30560730      -3.44010712      -0.13562831
Si       3.92274710       2.19102826      15.05223481        4      -0.45378803       0.15244034      -2.25076385
Si       7.67709770       4.50805478      14.33065375        4       1.60751791      -1.84122276      -0.35238343
Si       5.82665905       5.52446182      14.97421426        4      -2.30369152       0.38044103       0.30913401
Si       5.92991440       1.19068428      14.18459378        4      -5.60657722      -3.16824098      -0.02462192
Si       7.58750403       1.96261754      14.94409247        4       5.36348301       4.53225349       3.33856135
Si       3.60393329       4.40847224      14.15436636        4       3.88097971      -1.56335650      -0.44804144
Si       9.76180986       5.52286914      15.11607709        4      -3.18141300       1.97529678       1.34059314
Si       1.91134100       1.11718692      14.22416166        4       0.91388047      -0.43077010       2.23849463
Si       0.12565557      -0.13540605      18.29655549        3      -0.91391138       1.31283501      -3.07870393
Si       3.79441991       2.07881423      17.21895511        3       0.84766675       0.83832641       3.19367084
Si       2.05288910       3.28381440      18.36869599        3      -0.00919418      -0.07876679      -3.89742485
Si       5.82942861       5.53376797      17.34189641        3       0.70378340      -0.02206019       0.41205003
Si       3.95600116       0.00818678      18.36308412        3      -1.96510310       0.47499726      -1.20928920
Si       7.84330092       2.26876627      17.38515643        3      -1.01242213      -1.18723582       0.21257194
Si       5.78834136       3.33105117      18.18195274        3      -0.12186500      -0.84207900      -0.87006550
Si       9.50423462       5.51795045      17.60638707        3       2.60278002      -0.82023910      -1.67563586
Si       7.50561726       4.57198643      21.39422055        2       1.02564069      -2.79083133       0.81151766
Si      -0.05477682      -0.21983458      20.42725800        2      -0.34658600       1.44729144       3.43763444
Si       5.62327974       1.29097076      21.42078493        2       1.44164339      -2.07675045      -1.96471404
Si       1.96138432       3.35809598      20.47899483        2      -3.06369059      -0.91550778       2.80612302
Si       3.79188637       4.22648815      21.21372168        2       0.27045217       1.99352474       2.70471868
Si       3.98055224      -0.08893979      20.61169019        2      -1.22932427       2.43847961       0.14323349
Si       1.86934539       1.08579370      21.24165916        2       0.28970468      -0.62716450      -0.24216148
Si       5.65584437       3.32156676      20.51634939        2       1.70217681       0.61869991      -0.67820224
Si       3.67672898       2.18007804      24.69478979        1       1.01229352      -0.09715257      -0.39975760
Si       8.00782427       4.42233441      23.79801532        1      -2.76530877       0.11343050      -0.61472406
Si       5.52653652       5.59696163      24.46914820        1       2.68851824      -1.24114916       0.55556973
Si       5.72240479       1.25445951      23.58681833        1      -0.08012856      -0.17246787       3.15299409
Si       7.77836758       2.20525981      24.48235544        1      -0.64788007      -0.10817456      -0.08314495
Si       3.70005829       4.45305848      23.92157617        1       0.09504469      -1.58034076      -1.99129642
Si       9.65877417       5.66634470      24.62881080        1      -0.40964752       1.79965089       0.40962552
Si       1.92748216       0.99298216      23.62198638        1      -0.14274811       1.23842924      -0.55466037
48
Lattice="5.43 0.0 0.0 0.0 5.43 0.0 0.0 0.0 51.2225" Properties=species:S:1:pos:R:3:tags:I:1:forces:R:3 config_type=slab-displaced miller=100 energy=-250.4056362066753 label_model=mpa-0 structure_key=8f19c390a7dd3265e97878e52cd7189201175487e04ccca3c91916fc95bdaa6c pbc="T T F"
Si       1.32531416       1.29490898      11.32930427        6       0.35578277       1.81018725       0.07846812
Si       2.73157193       2.77519537      12.73554570        6      -0.34174743      -0.75000198      -0.35102033
Si       4.15641212       4.02120179      11.35641189        6      -0.81576427       0.61039269       0.34876159
Si       0.02652401       0.02880025      12.63728496        6      -0.38991089      -0.74467066       1.28888716
Si       1.36425480       4.04134213      14.14388075        6      -0.10461526       0.79927857      -0.70239890
Si       2.59219203      -0.08146811      10.08301669        6       0.33486353      -0.95242438      -0.67003424
Si       4.05727873       1.32977826      14.04896083        6       0.11816162      -0.00593153       0.26286383
Si      -0.04083784       2.77319275       9.94636368        6       1.06094718      -0.50648743      -0.52521651
Si       1.37791498       1.36564944      16.86625215        5      -0.52524031      -0.47953936      -1.16163535
Si       2.62603607       2.68412158      18.16133595        5       1.13885836       0.51080073       0.43610387
Si       3.98962859       4.01766056      16.71670427        5       1.27636853      -0.12704614       1.91592613
Si       0.07054910       0.02030554      18.20004267        5      -1.25922087      -0.68562802      -0.22196493
Si       1.32084222       3.99357483      19.56716233        5       0.80111595       1.28239109      -0.75338547
Si       2.74220569      -0.06034694      15.50987507        5      -0.83569128       1.31999354      -0.99354733
Si       4.05182328       1.38601300      19.55821203        5       0.44164574       0.12597503      -0.79327461
Si      -0.00486776       2.73559713      15.43434739        5      -0.11921889      -0.95600966       0.15178537
Si       1.26659973       1.27632879      22.26885995        4       1.36081184       1.78076374      -1.22060129
Si       2.76811921       2.70159574      23.61106536        4      -1.23577562      -0.13535140      -1.12062796
Si       3.99094535       3.99775518      22.16759485        4       0.27531763       1.24291490       0.36109276
Si      -0.03351433       0.03046261      23.50277737        4      -1.08430523      -1.50892877       1.52456421
Si       1.47290355       4.07267863      24.91499713        4      -1.38804343       0.22796037      -0.32374737
Si       2.71069827       0.03957047      20.82339269        4      -0.62337971      -0.63378863       0.63553347
Si       4.01716471       1.43880015      24.93507177        4       0.88963488      -1.45292658       0.38131376
Si      -0.02987811       2.80157577      20.85516432        4      -0.09706454      -1.61805046       0.81372072
Si       1.29285596       1.33591083      27.66101249        3       0.33867873       0.18723676      -0.10462644
Si       2.73405468       2.62444908      29.00689792        3      -0.47534648       1.31885975      -0.43088042
Si       4.06915033       4.11698845      27.59558792        3      -0.30644044      -1.05484107      -0.11941828
Si       0.00312174      -0.07189286      28.93281504        3      -0.54121356       0.68547221       1.05542764
Si       1.32683475       4.09103911      30.36485715        3       1.04504851       0.03621367      -0.17976275
Si       2.65436313       0.02356650      26.29857017        3       0.57797108       0.38805262      -0.00888603
Si       4.04189044       1.39422982      30.37928848        3       1.52150785      -0.30169532       0.07686495
Si       0.03240665       2.68931074      26.23512109        3      -0.02709870       0.72469383       0.24433340
Si       1.40614715       1.32957034      33.13510740        2      -0.14068197       0.41832312       0.36063862
Si       2.68002694       2.73358883      34.55194371        2       0.13452011       0.63979171      -1.15206418
Si       4.14970380       4.09815948      33.04505280        2      -1.32283036      -0.63614254       0.05171330
Si      -0.05565597      -0.00497297      34.38601598        2       0.54587908       0.63295623       0.90517619
Si       1.28827570       4.10367453      35.81975210        2      -0.02229655       0.03425658       0.65706591
Si       2.73221607       0.09963672      31.74202891        2      -0.01248411      -1.17464483      -0.25740648
Si       4.08128899       1.44982462      35.78424669        2      -0.48920159      -1.53167241       0.07658953
Si       0.13560935       2.73694178      31.78102603        2      -0.96247434      -0.48537071      -0.38671054
Si       1.28115105       1.40267567      38.40616549        1       0.78437735      -0.12159994       1.45999462
Si       2.71325200       2.74377501      39.87722149        1      -0.12812684      -0.33596119      -0.25795092
Si       4.11938044       4.09711749      38.51864002        1      -0.71051427       0.11445161       0.79712947
Si       0.01115317       0.03227414      39.85577307        1       0.20081572       0.14226680      -0.07413688
Si       1.27105946       4.02228286      41.21430406        1       0.00479571      -0.11113978       0.31008822
Si       2.72736795       0.03048938      37.26865280        1      -0.09986228      -0.05249389      -1.43851947
Si       4.04751409       1.29533361      41.27613576        1      -0.19470957       0.33222194       0.01820504
Si      -0.13984530       2.67373327      37.22208286        1       1.04615657       0.99689195      -0.96443120
48
Lattice="5.43 0.0 0.0 0.0 5.43 0.0 0.0 0.0 51.2225" Properties=species:S:1:pos:R:3:tags:I:1:forces:R:3 config_type=slab-displaced miller=100 energy=-238.72987536061143 label_model=mpa-0 structure_key=bd0eabc621ac2a3c0bbeb1cfece11b99c87c451ae7b0464a8dcd651a28f2037e pbc="T T F"
Si       1.33135172       1.35559288      11.30135312        6      -0.90766277       0.79106073       1.76781413
Si       2.93428093       2.82584567      12.78791912        6      -0.87929056      -1.54674908      -1.29892365
Si       4.05333713       4.10296726      11.20664860        6       0.15671894      -0.25231119      -0.89963426
Si      -0.21053707      -0.19512667      12.84948438        6      -0.01882239       2.57178942      -1.64540487
Si       1.24847904       3.93176557      13.79634086        6       1.48443103       0.02435241       2.52160915
Si       2.58048970       0.13255954       9.97897032        6       1.22389916      -1.22555063      -0.78863845
Si       4.08434817       1.38005668      14.26221475        6      -1.69001801      -2.01408228      -1.93035129
Si       0.06662745       2.62920872       9.61843568        6      -0.41746636       0.45793534       1.09595512
Si       1.17354329       1.19920281      16.82481401        5       0.25141663       0.47133337      -2.07274269
Si       2.46197287       2.59521631      18.06121649        5       1.72975450       1.19370121       0.64615722
Si       4.10944512       4.03048949      16.80246276        5      -0.77679215      -0.48251034       1.06881989
Si      -0.08375826       0.00993187      18.28261649        5       1.77425392      -3.08233894      -5.62997547
Si       1.29623613       4.33261102      19.38305146        5       3.46534408      -2.98001983       3.20508738
Si       2.76322570      -0.14590770      15.44980329        5      -1.96587891       0.54309068      -0.39078938
Si       4.10945174       1.14037095      19.25780052        5      -3.39521796       7.43969583       2.74763463
Si      -0.13963967       2.77329497      15.32039779        5       2.87792270       0.37362617       1.79434562
Si       1.25914842       1.19493548      22.31198178        4       2.10445462       2.07639824      -1.47658671
Si       2.75366016       2.82476457      23.44334656        4      -2.31604054      -1.98412340       1.82119416
Si       4.10106534       4.06664642      22.28465683        4       1.07738650       2.04417768      -1.86267347
Si      -0.00265435       0.03720332      23.68742311        4       2.11571172      -4.51180517      -0.85352954
Si       1.24142693       3.84853148      25.11087197        4       7.26241588       7.50085736      -6.01918415
Si       2.95639525       0.34543303      20.83761068        4      -2.53310526      -3.08257143       2.25293937
Si       4.10122796       1.25896152      24.65563911        4      -2.83290904       3.65030229       3.27279910
Si       0.14439088       2.78930585      20.95985877        4      -0.74483647      -0.47446216      -1.49321079
Si       1.22012028       1.37402153      27.77620414        3       1.42707765      -0.05238345      -0.42944730
Si       2.70659761       2.76696663      29.07689598        3       0.53749917      -0.37033111      -0.94831415
Si       4.36072553       3.93889924      27.63003176        3      -2.02903530       1.85936403       1.08646754
Si       0.11712430      -0.05368810      29.27730124        3      -2.48869578       2.41849748      -4.57860046
Si       1.14174798       4.00508990      30.31996491        3       4.71012826      -2.09194541       3.08474554
Si       2.85095680       0.17832517      26.39020290        3      -0.54155178      -1.72551969      -0.14478365
Si       4.13099471       1.29234014      30.32952058        3       0.22501625       2.49654309      -0.15524425
Si       0.15362347       2.73509591      26.16126914        3      -5.98233213      -7.09544724       4.80334674
Si       1.40218585       1.29672291      33.22029740        2      -0.39425464       0.29969736      -0.83077213
Si       2.86994920       2.75550812      34.38147514        2      -1.61279119      -1.87572939       1.79896325
Si       3.92048170       4.07010606      33.01531202        2       1.83531969       1.37283359      -0.64524893
Si      -0.10423660      -0.10297117      34.57037596        2       0.82733516      -0.21145974      -1.19964742
Si       1.39752504       3.96682456      35.79006961        2      -0.43966503       0.04718907       0.02388741
Si       2.83569873       0.13354829      31.61315983        2      -3.06027589      -1.88108466       1.40136558
Si       3.97547811       1.18173648      35.88473953        2       3.30913541       4.33401955      -2.07652411
Si      -0.01828184       2.76103212      31.78781242        2      -0.15396331      -1.55424346       0.66576164
Si       1.49036973       1.44424825      38.50151407        1       0.09036152      -0.60279555       0.22912304
Si       2.81427550       2.78760610      39.96121647        1       0.44405844       0.05367329      -3.49502226
Si       4.00247602       4.15464706      38.48932140        1       0.55073643       0.02321020       0.27025107
Si      -0.01037828       0.09987494      39.73772279        1       0.10539461       0.05509790       0.89288192
Si       1.42099082       3.98091073      40.99100975        1      -2.75656651       2.62239055       1.60037110
Si       2.77321067      -0.01523579      37.01672165        1      -3.42406085      -1.95986174       2.73002483
Si       3.87358042       1.41805489      41.17820000        1       2.20179146      -2.87421517       1.55995791
Si       0.02240053       2.77317704      37.33800704        1      -0.42633092      -0.78929582      -1.47625393
48
Lattice="7.679179643685906 0.0 0.0 0.0 5.43 0.0 0.0 0.0 41.11774402013624" Properties=species:S:1:pos:R:3:tags:I:1:forces:R:3 config_type=slab-displaced miller=110 energy=-251.22413099705594 label_model=mpa-0 structure_key=1a1cb2c4326cff005ac28bbe3f291d92b7ee33ba7838114f5e5d4b7d8316e9a9 pbc="T T F"
Si       7.64186837       4.04228411      11.94257471        6       0.77235727       0.18253543      -0.49632099
Si       3.87226142       2.73393151      10.01277979        6      -0.24747735      -0.48550821      -0.10628838
Si       1.91030974       1.37945790      10.00896082        6       0.64141220       0.15824596      -0.28838172
Si       1.90869400       0.03983862      11.88822464        6       0.02142072      -0.63338676       0.23669867
Si       5.73701240       1.31436584       9.97997463        6       0.48116341       0.62348084      -0.19917261
Si       5.84971688       0.02218548      11.90618878        6      -1.44389653      -0.48181226      -0.04566608
Si       3.78432954       3.96231664      11.99585114        6       0.67297642       1.78916935      -1.30273365
Si       0.06429752       2.70687149       9.98975384        6      -0.90889430      -0.14507775       0.03383252
Si       3.83596735       4.13502836      15.76503961        5      -0.13928739      -0.51474490      -0.15909216
Si       7.67750725       2.71655489      13.83363877        5      -0.02980676       0.32798710       0.54382991
Si       5.79685342       1.35011609      13.81988894        5      -0.24129444       0.03956872       0.23594681
Si       5.69087791       0.04664403      15.77994943        5       0.88694761      -0.09045589      -0.15032332
Si       1.94510813       1.47142525      13.76816911        5      -0.04017879      -0.96802436       0.64857385
Si       1.89305133      -0.04524781      15.72465993        5       0.18060991       0.95892692      -0.30556226
Si       7.67650920       4.09576349      15.80587410        5      -0.67119480      -0.09798148      -0.72624277
Si       3.88337631       2.74941542      13.84785252        5       0.18330209      -0.60019440       1.02728336
Si       7.63196100       4.13691802      19.52477232        4       1.03386301      -0.31072875       0.86726860
Si       3.82335384       2.71895139      17.62280618        4       0.58408289      -0.20683247       0.04905117
Si       1.94652104       1.34965403      17.63942707        4      -0.10125343      -0.14308727       0.26584390
Si       2.03449473       0.08469826      19.66849459        4      -0.71487044      -0.90159835      -0.96282446
Si       5.83365074       1.35415520      17.69990341        4      -0.79699625       0.65518461      -0.60999540
Si       5.72204497       0.03119907      19.53324693        4       0.24303981       0.21494656       1.17991864
Si       3.91089029       4.03890142      19.53355454        4      -0.65983753       0.05631133       0.63249884
Si       7.70494981       2.71345425      17.64565147        4       0.22863570       0.06339627       0.39449322
Si       3.77661239       4.07749199      23.44455163        3       0.45405743       0.50048722      -0.05324205
Si       7.69881967       2.66268073      21.54879962        3      -0.43372805       1.00417165      -0.67416063
Si       5.72910519       1.43302934      21.57979552        3       0.10204537      -0.98576961      -0.38042376
Si       5.71962439      -0.04191422      23.46447027        3       0.04515217       0.18133505      -0.29012341
Si       1.89788160       1.36238692      21.55446735        3       0.88532193       0.14756172       0.54500470
Si       1.93772711      -0.00137714      23.51020162        3      -0.72501688      -0.04967459      -0.75125971
Si       7.65239363       4.04799525      23.45555051        3       0.32839328       0.61708688      -0.56037852
Si       3.85866047       2.79177238      21.59289454        3      -0.53607181      -0.48782883      -1.07425623
Si       0.06846598       4.05425202      27.26452821        2      -0.69501786      -0.18004074       0.01770535
Si       3.83496562       2.72863139      25.26472380        2       0.08629432      -0.09724842       0.72327765
Si       2.00931324       1.32756309      25.35791806        2      -0.99475399       0.61332829       0.31252839
Si       1.89541594      -0.02075682      27.25460096        2       0.94332906       0.15479474       0.17093894
Si       5.65536286       1.32690764      25.34603252        2       1.32699264       0.23537569       0.35857056
Si       5.83046096       0.05203135      27.36865704        2      -0.35694745      -0.55540032      -0.91021298
Si       3.89246612       4.07267098      27.18120480        2      -0.12869259      -0.09253919       1.07107779
Si       7.70645661       2.76008250      25.31297587        2      -0.30822564      -1.25854777       0.58061925
Si       3.83083298       4.17177117      31.12806403        1      -0.18373775      -1.03671411      -0.11615727
Si       0.07996415       2.65411448      29.16875795        1      -0.62853737       0.91957759       0.58698244
Si       5.80153846       1.38097348      29.23472409        1      -0.12576915       0.24763686       0.36346795
Si       5.69410113      -0.02725177      31.08180397        1       0.87167265       0.34119058       0.14565095
Si       1.87027550       1.26756392      29.23392875        1       1.17245731       0.15690000      -0.00201148
Si       1.92163223      -0.05498463      31.13816462        1      -0.46476397       0.41953175       0.18478809
Si       7.65554982       4.12870377      31.11659010        1      -0.07381543      -0.53669925      -0.34790611
Si       3.86460921       2.69715372      29.29002833        1      -0.49546125       0.25116460      -0.66311560
48
Lattice="7.679179643685906 0.0 0.0 0.0 5.43 0.0 0.0 0.0 41.11774402013624" Properties=species:S:1:pos:R:3:tags:I:1:forces:R:3 config_type=slab-displaced miller=110 energy=-236.84947575770744 label_model=mpa-0 structure_key=f541e08a9b37a9e18330e9ba57e7b5894d03f9ae5f1b4017fac0f26eb862cc05 pbc="T T F"
Si       7.92974256       3.96070967      12.10576323        6      -1.29311036       3.43650916      -5.07841030
Si       3.84785971       2.81270228       9.95453340        6      -1.01844213      -0.08284858       0.23930146
Si       1.72095962       1.50294852      10.23190756        6       4.84193821      -2.33362273      -0.22012964
Si       1.85902248       0.05898304      11.99150407        6       2.31215289      -0.76423351      -0.13137562
Si       5.66265930       1.43828093       9.99239168        6       1.15566844       0.36222036      -0.56388202
Si       5.84896325       0.20555842      11.89096116        6       0.84600862      -2.50745680      -0.78391074
Si       4.09057895       4.04260569      11.98506040        6      -1.16051334       2.27568413      -2.38059980
Si       0.11438230       2.71140358      10.08669145        6      -4.75250073       2.73525004      -0.26817683
Si       4.04375977       4.20386368      15.62362110        5      -8.55262552      -6.56985279       0.63085730
Si       7.58319526       2.79681683      13.69529787        5      -0.97008642      -4.17903883       5.52482695
Si       5.55489590       1.30837100      13.76163461        5       3.71290294      -1.32182940       1.84667714
Si       5.60005619      -0.14738209      15.70173500        5       7.77231191       6.61813208       0.91381883
Si       1.89844397       1.34700350      13.88433398        5       0.17816524       2.44898140      -1.30864615
Si       1.92604800      -0.07113051      15.54472544        5      -0.52319339      -0.70697003       2.91481607
Si       7.50086501       3.99372445      15.79658232        5       1.31255999       1.27120421      -2.59197394
Si       4.04148935       2.72627912      13.69271659        5      -3.98372274       1.01383507       2.48834534
Si       7.69468882       4.12643264      19.58104438        4       0.20441254       0.26210970       1.21608309
Si       3.74959575       2.47539898      17.76619547        4       3.55599059       2.87695276      -0.08831080
Si       1.81279879       1.60907791      17.61495827        4      -1.63976982      -3.21362811      -0.49668860
Si       2.09255574      -0.03310103      19.62150312        4      -7.09264940       5.26953458      -0.90363455
Si       5.99762730       1.19635177      17.83755029        4      -1.12002545       5.08241520      -8.51437557
Si       5.82209647       0.14761113      19.40929114        4      -1.60870152      -5.37050488       9.23471182
Si       3.65869903       4.25136485      19.72400234        4       7.40694916      -5.63359531      -0.37464603
Si       7.54955959       2.90248456      17.67319771        4       0.28526081      -1.49922898       1.03752228
Si       3.78851239       3.85994899      23.32199880        3       0.75102043       2.41417417       2.29892372
Si       7.69116134       2.65615420      21.56428026        3      -1.68551592       0.57972729      -1.18519069
Si       5.66223223       1.37989466      21.69607282        3       2.05725536      -2.12146034      -0.73549853
Si       5.64160858      -0.07350552      23.76975054        3       0.56328689      -2.49146771      -3.91194518
Si       1.91456181       1.50338625      21.49154084        3      -0.03538037      -3.00573454       0.37770728
Si       1.93586012      -0.27848018      23.35177007        3      -1.10915491       2.60136481       0.43421080
Si       7.64004042       3.84653357      23.48195192        3      -0.31279936       1.99675653       0.33494793
Si       3.84062817       2.58096437      21.63317748        3      -0.24222291       0.95519334      -3.03073195
Si      -0.04320556       4.19307372      27.25833596        2       1.18715422      -1.59201124      -0.49396865
Si       3.82376010       2.76076302      25.30905352        2      -1.96012939       0.57665516       1.13128658
Si       1.78969827       1.45203448      25.42759123        2       1.09320806      -0.59846489      -2.21827543
Si       1.95441274      -0.03117459      27.07355708        2      -1.46369784       0.62434426       1.77445752
Si       5.61633569       1.50364194      25.16201077        2       0.57937975      -0.24273133       3.20610103
Si       5.92741206       0.12557613      27.28853992        2      -2.79747513       0.12392249      -2.15976412
Si       3.75484152       4.15993051      27.29513720        2       2.82396190      -1.24194339       0.29721162
Si       7.51368924       2.64647860      25.40638774        2       0.76968968       0.73983654       0.69251318
Si       3.78542931       4.02535038      31.26886126        1       0.74193289      -0.54241838      -0.75888405
Si      -0.06390532       2.87340230      29.21652002        1       0.31302634      -1.45430238      -1.70504892
Si       5.82983319       1.36481767      29.10066254        1       0.82337920      -0.28074672       1.90844982
Si       5.76265246      -0.06051348      31.11847009        1      -2.66819440       2.09133233      -0.24789099
Si       1.78776331       1.40574526      29.07859379        1       1.31527159      -0.33195930       0.12800618
Si       2.02068646       0.01687150      31.02990359        1      -1.81889023      -0.23947331      -0.31708123
Si       7.43411059       4.11694564      30.96370954        1       3.74194431       0.06587053       1.80765386
Si       3.97421010       2.56680053      29.23062696        1      -2.53603069       1.90351735       0.03061050
48
Lattice="7.679179643685906 0.0 0.0 3.8395898218429525 6.650364651656329 0.0 0.0 0.0 36.458812798923255" Properties=species:S:1:pos:R:3:tags:I:1:forces:R:3 config_type=slab-displaced miller=111 energy=-251.04413007925115 label_model=mpa-0 structure_key=a2f77c7643a69a499547e46b6cb209e8469d76d1e5f33b41235bc3a26e7bfa89 pbc="T T F"
Si      -0.09181044       0.03619454      10.76331089        6       0.00712995      -0.14003797       0.09658047
Si       3.80302499       2.26412853       9.97895400        6       1.22855940      -0.91974893      -0.56163265
Si       2.01778723       3.25957953      10.80715967        6      -1.55195194       1.06769896      -0.07320951
Si       5.67666029       5.60980412       9.99658068        6       0.40486154      -0.44461339       0.04377702
Si       3.82708839       0.01862530      10.78826570        6      -0.30366139       0.17591234      -0.20331462
Si       7.68374521       2.22729976       9.98619210        6       0.06879650       0.33363401      -0.03401625
Si       5.73975220       3.32206752      10.79371149        6       0.02906659       0.40092909      -0.56219874
Si       9.54459723       5.54375670       9.93354444        6       0.08587538      -0.42508206       0.11710005
Si       7.65161206       4.43188578      13.80856474        5       0.31175521       0.61705357       0.95243279
Si       0.04810675      -0.03451807      13.13233926        5      -1.26620802       0.84405537      -0.29018202
Si       5.71536541       1.15779497      13.93812922        5       0.35445318      -0.17465527      -1.01294199
Si       1.87885223       3.28066742      13.13140460        5       0.45353383       1.02296919      -0.09792815
Si       3.83216089       4.50375047      13.90593849        5      -0.43505847      -1.19428039       0.28469029
Si       7.57161189       6.74961329      13.15582897        5       1.07211543      -0.76607972      -0.28692505
Si       1.85493520       1.13826585      13.85615256        5       0.03424433       0.00488159       1.01500263
Si       5.73942481       3.40613336      13.11878482        5      -0.34903833      -0.64827251       0.10201707
Si       3.85412408       2.24585913      17.13571224        4       0.07158654      -1.07657093      -0.75589517
Si       7.67394110       4.39081169      16.27507615        4       0.02658895       1.83976466      -1.14170608
Si       5.73346230       5.56835032      16.95697573        4       0.15591147      -0.18204468       0.81869793
Si       5.72311174       1.07518620      16.19775204        4       0.41825042       1.00603695       1.09574460
Si       7.65764579       2.35401076      17.07989409        4       0.05210389      -2.47881341       0.09354212
Si       3.85623178       4.32582179      16.25718497        4      -0.27238094       1.39399027      -0.18173110
Si       9.60793920       5.57562759      17.00254978        4       0.07694333      -0.80140608       0.75611075
Si       1.95549173       1.14755255      16.23716632        4      -0.61753789       0.38060557       0.16496892
Si       0.02427491       0.03917624      20.12160662        3      -0.28088878      -0.09972109       0.75529700
Si       3.88350840       2.21128579      19.41078139        3      -1.17950868       0.05886881       0.69419262
Si       1.84694326       3.37451079      20.22261641        3       1.12304384      -0.36477517       0.15457941
Si       5.71840383       5.53386901      19.42467541        3       0.61731094       0.09193920      -0.76768146
Si       3.80633192       0.02999411      20.28279730        3       0.00574358      -0.22929123      -0.63167968
Si       7.69633393       2.24663502      19.44037304        3      -0.65278331       0.23600745      -0.40179335
Si       5.70117422       3.32436369      20.20213716        3       0.77606280       0.20090164      -0.00922589
Si       9.59116919       5.56721634      19.47903058        3      -0.26469595       0.32241182      -0.81286143
Si       7.68852841       4.50367519      23.32706051        2       0.18774376      -0.25813613       0.35832341
Si       0.07656146       0.07796683      22.52462373        2      -0.64655559      -0.57322193      -0.06223485
Si       5.74946104       1.12319931      23.32992477        2       0.64509765       0.50697716      -0.07812904
Si       1.89805018       3.32567542      22.59408014        2       0.23525442      -0.15841889      -0.10895675
Si       3.84000270       4.44893323      23.36036425        2       0.07092499       0.28331007      -0.35074706
Si       3.84212504       0.05359001      22.59668396        2       0.60441922      -0.42318094      -0.34490928
Si       1.99701938       1.04589927      23.37820188        2      -0.77893669       1.05276198      -0.43048829
Si       5.81572284       3.41121008      22.52051602        2      -0.57669276      -0.55990221       0.39403275
Si       3.83799348       2.21208541      26.53524643        1      -0.46431757      -0.22525959      -0.11285526
Si       7.65435637       4.40011966      25.71497467        1       0.32653990       0.23590084      -0.41854074
Si       5.74436513       5.42679409      26.46591312        1      -0.03682201       1.15005703       0.26034851
Si       5.74981771       1.14243313      25.69116806        1      -0.15744587      -0.37403836       0.06618725
Si       7.62799562       2.24372723      26.49257539        1       0.63283487      -0.69933709       0.13203527
Si       3.82037990       4.42850997      25.71834214        1      -0.29602630      -0.28149857      -0.08936683
Si       9.57073401       5.52835866      26.49454855        1       0.04061953       0.30863891       0.05236929
Si       1.89292432       1.07044987      25.64323707        1       0.01313908      -0.03691995       1.41312114
48
Lattice="7.679179643685906 0.0 0.0 3.8395898218429525 6.650364651656329 0.0 0.0 0.0 36.458812798923255" Properties=species:S:1:pos:R:3:tags:I:1:forces:R:3 config_type=slab-displaced miller=111 energy=-241.12024991500505 label_model=mpa-0 structure_key=e224d5efe58a91e580ea04c510c32c2b5e1febfd72ddfb5c3cf3cb1deaa18a10 pbc="T T F"
Si       0.03180932       0.01312787      10.96399620        6      -0.80477540      -2.23989310      -0.80245548
Si       3.71016915       2.33536928      10.10668430        6       1.28424525      -0.54038846       0.37563654
Si       1.84425979       3.44550476      10.84643247        6      -1.02687711      -0.67396769      -0.26253369
Si       5.60074648       5.77493143       9.73717086        6       1.64900573      -1.20434488       1.02699538
Si       3.90770104       0.01044293      10.87213320        6      -0.91962972       0.30402339      -2.02395723
Si       7.63757278       1.96417910      10.05706995        6      -0.46319081       4.24896250      -0.49873034
Si       5.68889798       3.50703285      10.96543158        6       0.18713965      -0.30304343      -3.82707727
Si       9.60247990       5.57760562       9.83858549        6       0.10163540       0.34272041       0.46134981
Si       7.52326315       4.39137613      13.97122062        5       2.15326243       1.93919515       0.73295180
Si      -0.12918751       0.05320861      13.14207830        5       2.57072666      -0.81104034       1.94162609
Si       5.85510391       1.18312409      14.00033980        5      -1.31305903       0.49420925      -1.57835344
Si       1.73595170       3.25699747      13.20433461        5       1.13819308       3.82560645      -1.33234845
Si       4.15928974       4.40466024      13.88364639        5      -6.10091328       2.82393948       1.53521699
Si       7.82264625       6.69168136      13.11880343        5      -1.13388668       0.01526314       1.79710232
Si       2.00794928       1.39235925      14.09057358        5       0.18023048      -4.53372119      -2.14069614
Si       5.76786090       3.42392070      13.12971789        5       2.30560730      -3.44010712      -0.13562831
Si       3.92274710       2.19102826      17.05223481        4      -0.45378803       0.15244034      -2.25076385
Si       7.67709770       4.50805478      16.33065375        4       1.60751791      -1.84122276      -0.35238343
Si       5.82665905       5.52446182      16.97421426        4      -2.30369152       0.38044103       0.30913401
Si       5.92991440       1.19068428      16.18459378        4      -5.60657722      -3.16824098      -0.02462192
Si       7.58750403       1.96261754      16.94409247        4       5.36348301       4.53225349       3.33856135
Si       3.60393329       4.40847224      16.15436636        4       3.88097971      -1.56335650      -0.44804144
Si       9.76180986       5.52286914      17.11607709        4      -3.18141300       1.97529678       1.34059314
Si       1.91134100       1.11718692      16.22416166        4       0.91388047      -0.43077010       2.23849463
Si       0.12565557      -0.13540605      20.29655549        3      -0.91391138       1.31283501      -3.07870393
Si       3.79441991       2.07881423      19.21895511        3       0.84766675       0.83832641       3.19367084
Si       2.05288910       3.28381440      20.36869599        3      -0.00919418      -0.07876679      -3.89742485
Si       5.82942861       5.53376797      19.34189641        3       0.70378340      -0.02206019       0.41205003
Si       3.95600116       0.00818678      20.36308412        3      -1.96510310       0.47499726      -1.20928920
Si       7.84330092       2.26876627      19.38515643        3      -1.01242213      -1.18723582       0.21257194
Si       5.78834136       3.33105117      20.18195274        3      -0.12186500      -0.84207900      -0.87006550
Si       9.50423462       5.51795045      19.60638707        3       2.60278002      -0.82023910      -1.67563586
Si       7.50561726       4.57198643      23.39422055        2       1.02564069      -2.79083133       0.81151766
Si      -0.05477682      -0.21983458      22.42725800        2      -0.34658600       1.44729144       3.43763444
Si       5.62327974       1.29097076      23.42078493        2       1.44164339      -2.07675045      -1.96471404
Si       1.96138432       3.35809598      22.47899483        2      -3.06369059      -0.91550778       2.80612302
Si       3.79188637       4.22648815      23.21372168        2       0.27045217       1.99352474       2.70471868
Si       3.98055224      -0.08893979      22.61169019        2      -1.22932427       2.43847961       0.14323349
Si       1.86934539       1.08579370      23.24165916        2       0.28970468      -0.62716450      -0.24216148
Si       5.65584437       3.32156676      22.51634939        2       1.70217681       0.61869991      -0.67820224
Si       3.67672898       2.18007804      26.69478979        1       1.01229352      -0.09715257      -0.39975760
Si       8.00782427       4.42233441      25.79801532        1      -2.76530877       0.11343050      -0.61472406
Si       5.52653652       5.59696163      26.46914820        1       2.68851824      -1.24114916       0.55556973
Si       5.72240479       1.25445951      25.58681833        1      -0.08012856      -0.17246787       3.15299409
Si       7.77836758       2.20525981      26.48235544        1      -0.64788007      -0.10817456      -0.08314495
Si       3.70005829       4.45305848      25.92157617        1       0.09504469      -1.58034076      -1.99129642
Si       9.65877417       5.66634470      26.62881080        1      -0.40964752       1.79965089       0.40962552
Si       1.92748216       0.99298216      25.62198638        1      -0.14274811       1.23842924      -0.55466037
48
Lattice="5.43 0.0 0.0 0.0 5.43 0.0 0.0 0.0 55.2225" Properties=species:S:1:pos:R:3:tags:I:1:forces:R:3 config_type=slab-displaced miller=100 energy=-250.4056362066753 label_model=mpa-0 structure_key=c03a382256af31ea3fb90505772f125ea705ac9cd13386a4cbd4cee83e4d0e1b pbc="T T F"
Si       1.32531416       1.29490898      13.32930427        6       0.35578277       1.81018725       0.07846812
Si       2.73157193       2.77519537      14.73554570        6      -0.34174743      -0.75000198      -0.35102033
Si       4.15641212       4.02120179      13.35641189        6      -0.81576427       0.61039269       0.34876159
Si       0.02652401       0.02880025      14.63728496        6      -0.38991089      -0.74467066       1.28888716
Si       1.36425480       4.04134213      16.14388075        6      -0.10461526       0.79927857      -0.70239890
Si       2.59219203      -0.08146811      12.08301669        6       0.33486353      -0.95242438      -0.67003424
Si       4.05727873       1.32977826      16.04896083        6       0.11816162      -0.00593153       0.26286383
Si      -0.04083784       2.77319275      11.94636368        6       1.06094718      -0.50648743      -0.52521651
Si       1.37791498       1.36564944      18.86625215        5      -0.52524031      -0.47953936      -1.16163535
Si       2.62603607       2.68412158      20.16133595        5       1.13885836       0.51080073       0.43610387
Si       3.98962859       4.01766056      18.71670427        5       1.27636853      -0.12704614       1.91592613
Si       0.07054910       0.02030554      20.20004267        5      -1.25922087      -0.68562802      -0.22196493
Si       1.32084222       3.99357483      21.56716233        5       0.80111595       1.28239109      -0.75338547
Si       2.74220569      -0.06034694      17.50987507        5      -0.83569128       1.31999354      -0.99354733
Si       4.05182328       1.38601300      21.55821203        5       0.44164574       0.12597503      -0.79327461
Si      -0.00486776       2.73559713      17.43434739        5      -0.11921889      -0.95600966       0.15178537
Si       1.26659973       1.27632879      24.26885995        4       1.36081184       1.78076374      -1.22060129
Si       2.76811921       2.70159574      25.61106536        4      -1.23577562      -0.13535140      -1.12062796
Si       3.99094535       3.99775518      24.16759485        4       0.27531763       1.24291490       0.36109276
Si      -0.03351433       0.03046261      25.50277737        4      -1.08430523      -1.50892877       1.52456421
Si       1.47290355       4.07267863      26.91499713        4      -1.38804343       0.22796037      -0.32374737
Si       2.71069827       0.03957047      22.82339269        4      -0.62337971      -0.63378863       0.63553347
Si       4.01716471       1.43880015      26.93507177        4       0.88963488      -1.45292658       0.38131376
Si      -0.02987811       2.80157577      22.85516432        4      -0.09706454      -1.61805046       0.81372072
Si       1.29285596       1.33591083      29.66101249        3       0.33867873       0.18723676      -0.10462644
Si       2.73405468       2.62444908      31.00689792        3      -0.47534648       1.31885975      -0.43088042
Si       4.06915033       4.11698845      29.59558792        3      -0.30644044      -1.05484107      -0.11941828
Si       0.00312174      -0.07189286      30.93281504        3      -0.54121356       0.68547221       1.05542764
Si       1.32683475       4.09103911      32.36485715        3       1.04504851       0.03621367      -0.17976275
Si       2.65436313       0.02356650      28.29857017        3       0.57797108       0.38805262      -0.00888603
Si       4.04189044       1.39422982      32.37928848        3       1.52150785      -0.30169532       0.07686495
Si       0.03240665       2.68931074      28.23512109        3      -0.02709870       0.72469383       0.24433340
Si       1.40614715       1.32957034      35.13510740        2      -0.14068197       0.41832312       0.36063862
Si       2.68002694       2.73358883      36.55194371        2       0.13452011       0.63979171      -1.15206418
Si       4.14970380       4.09815948      35.04505280        2      -1.32283036      -0.63614254       0.05171330
Si      -0.05565597      -0.00497297      36.38601598        2       0.54587908       0.63295623       0.90517619
Si       1.28827570       4.10367453      37.81975210        2      -0.02229655       0.03425658       0.65706591
Si       2.73221607       0.09963672      33.74202891        2      -0.01248411      -1.17464483      -0.25740648
Si       4.08128899       1.44982462      37.78424669        2      -0.48920159      -1.53167241       0.07658953
Si       0.13560935       2.73694178      33.78102603        2      -0.96247434      -0.48537071      -0.38671054
Si       1.28115105       1.40267567      40.40616549        1       0.78437735      -0.12159994       1.45999462
Si       2.71325200       2.74377501      41.87722149        1      -0.12812684      -0.33596119      -0.25795092
Si       4.11938044       4.09711749      40.51864002        1      -0.71051427       0.11445161       0.79712947
Si       0.01115317       0.03227414      41.85577307        1       0.20081572       0.14226680      -0.07413688
Si       1.27105946       4.02228286      43.21430406        1       0.00479571      -0.11113978       0.31008822
Si       2.72736795       0.03048938      39.26865280        1      -0.09986228      -0.05249389      -1.43851947
Si       4.04751409       1.29533361      43.27613576        1      -0.19470957       0.33222194       0.01820504
Si      -0.13984530       2.67373327      39.22208286        1       1.04615657       0.99689195      -0.96443120
48
Lattice="5.43 0.0 0.0 0.0 5.43 0.0 0.0 0.0 55.2225" Properties=species:S:1:pos:R:3:tags:I:1:forces:R:3 config_type=slab-displaced miller=100 energy=-238.72987536061143 label_model=mpa-0 structure_key=f055337febaf83cb81f8ca3360e1120e42537eac4e3afa46fd50793f25e7eba7 pbc="T T F"
Si       1.33135172       1.35559288      13.30135312        6      -0.90766277       0.79106073       1.76781413
Si       2.93428093       2.82584567      14.78791912        6      -0.87929056      -1.54674908      -1.29892365
Si       4.05333713       4.10296726      13.20664860        6       0.15671894      -0.25231119      -0.89963426
Si      -0.21053707      -0.19512667      14.84948438        6      -0.01882239       2.57178942      -1.64540487
Si       1.24847904       3.93176557      15.79634086        6       1.48443103       0.02435241       2.52160915
Si       2.58048970       0.13255954      11.97897032        6       1.22389916      -1.22555063      -0.78863845
Si       4.08434817       1.38005668      16.26221475        6      -1.69001801      -2.01408228      -1.93035129
Si       0.06662745       2.62920872      11.61843568        6      -0.41746636       0.45793534       1.09595512
Si       1.17354329       1.19920281      18.82481401        5       0.25141663       0.47133337      -2.07274269
Si       2.46197287       2.59521631      20.06121649        5       1.72975450       1.19370121       0.64615722
Si       4.10944512       4.03048949      18.80246276        5      -0.77679215      -0.48251034       1.06881989
Si      -0.08375826       0.00993187      20.28261649        5       1.77425392      -3.08233894      -5.62997547
Si       1.29623613       4.33261102      21.38305146        5       3.46534408      -2.98001983       3.20508738
Si       2.76322570      -0.14590770      17.44980329        5      -1.96587891       0.54309068      -0.39078938
Si       4.10945174       1.14037095      21.25780052        5      -3.39521796       7.43969583       2.74763463
Si      -0.13963967       2.77329497      17.32039779        5       2.87792270       0.37362617       1.79434562
Si       1.25914842       1.19493548      24.31198178        4       2.10445462       2.07639824      -1.47658671
Si       2.75366016       2.82476457      25.44334656        4      -2.31604054      -1.98412340       1.82119416
Si       4.10106534       4.06664642      24.28465683        4       1.07738650       2.04417768      -1.86267347
Si      -0.00265435       0.03720332      25.68742311        4       2.11571172      -4.51180517      -0.85352954
Si       1.24142693       3.84853148      27.11087197        4       7.26241588       7.50085736      -6.01918415
Si       2.95639525       0.34543303      22.83761068        4      -2.53310526      -3.08257143       2.25293937
Si       4.10122796       1.25896152      26.65563911        4      -2.83290904       3.65030229       3.27279910
Si       0.14439088       2.78930585      22.95985877        4      -0.74483647      -0.47446216      -1.49321079
Si       1.22012028       1.37402153      29.77620414        3       1.42707765      -0.05238345      -0.42944730
Si       2.70659761       2.76696663      31.07689598        3       0.53749917      -0.37033111      -0.94831415
Si       4.36072553       3.93889924      29.63003176        3      -2.02903530       1.85936403       1.08646754
Si       0.11712430      -0.05368810      31.27730124        3      -2.48869578       2.41849748      -4.57860046
Si       1.14174798       4.00508990      32.31996491        3       4.71012826      -2.09194541       3.08474554
Si       2.85095680       0.17832517      28.39020290        3      -0.54155178      -1.72551969      -0.14478365
Si       4.13099471       1.29234014      32.32952058        3       0.22501625       2.49654309      -0.15524425
Si       0.15362347       2.73509591      28.16126914        3      -5.98233213      -7.09544724       4.80334674
Si       1.40218585       1.29672291      35.22029740        2      -0.39425464       0.29969736      -0.83077213
Si       2.86994920       2.75550812      36.38147514        2      -1.61279119      -1.87572939       1.79896325
Si       3.92048170       4.07010606      35.01531202        2       1.83531969       1.37283359      -0.64524893
Si      -0.10423660      -0.10297117      36.57037596        2       0.82733516      -0.21145974      -1.19964742
Si       1.39752504       3.96682456      37.79006961        2      -0.43966503       0.04718907       0.02388741
Si       2.83569873       0.13354829      33.61315983        2      -3.06027589      -1.88108466       1.40136558
Si       3.97547811       1.18173648      37.88473953        2       3.30913541       4.33401955      -2.07652411
Si      -0.01828184       2.76103212      33.78781242        2      -0.15396331      -1.55424346       0.66576164
Si       1.49036973       1.44424825      40.50151407        1       0.09036152      -0.60279555       0.22912304
Si       2.81427550       2.78760610      41.96121647        1       0.44405844       0.05367329      -3.49502226
Si       4.00247602       4.15464706      40.48932140        1       0.55073643       0.02321020       0.27025107
Si      -0.01037828       0.09987494      41.73772279        1       0.10539461       0.05509790       0.89288192
Si       1.42099082       3.98091073      42.99100975        1      -2.75656651       2.62239055       1.60037110
Si       2.77321067      -0.01523579      39.01672165        1      -3.42406085      -1.95986174       2.73002483
Si       3.87358042       1.41805489      43.17820000        1       2.20179146      -2.87421517       1.55995791
Si       0.02240053       2.77317704      39.33800704        1      -0.42633092      -0.78929582      -1.47625393
48
Lattice="7.679179643685906 0.0 0.0 0.0 5.43 0.0 0.0 0.0 45.11774402013624" Properties=species:S:1:pos:R:3:tags:I:1:forces:R:3 config_type=slab-displaced miller=110 energy=-251.22413099705588 label_model=mpa-0 structure_key=4f5e1f5e97d6d7087830502e105a55475c3893d8644e1ab28062781bde88ed37 pbc="T T F"
Si       7.64186837       4.04228411      13.94257471        6       0.77235727       0.18253543      -0.49632099
Si       3.87226142       2.73393151      12.01277979        6      -0.24747735      -0.48550821      -0.10628838
Si       1.91030974       1.37945790      12.00896082        6       0.64141220       0.15824596      -0.28838172
Si       1.90869400       0.03983862      13.88822464        6       0.02142072      -0.63338676       0.23669867
Si       5.73701240       1.31436584      11.97997463        6       0.48116341       0.62348084      -0.19917261
Si       5.84971688       0.02218548      13.90618878        6      -1.44389653      -0.48181226      -0.04566608
Si       3.78432954       3.96231664      13.99585114        6       0.67297642       1.78916935      -1.30273365
Si       0.06429752       2.70687149      11.98975384        6      -0.90889430      -0.14507775       0.03383252
Si       3.83596735       4.13502836      17.76503961        5      -0.13928739      -0.51474490      -0.15909216
Si       7.67750725       2.71655489      15.83363877        5      -0.02980676       0.32798710       0.54382991
Si       5.79685342       1.35011609      15.81988894        5      -0.24129444       0.03956872       0.23594681
Si       5.69087791       0.04664403      17.77994943        5       0.88694761      -0.09045589      -0.15032332
Si       1.94510813       1.47142525      15.76816911        5      -0.04017879      -0.96802436       0.64857385
Si       1.89305133      -0.04524781      17.72465993        5       0.18060991       0.95892692      -0.30556226
Si       7.67650920       4.09576349      17.80587410        5      -0.67119480      -0.09798148      -0.72624277
Si       3.88337631       2.74941542      15.84785252        5       0.18330209      -0.60019440       1.02728336
Si       7.63196100       4.13691802      21.52477232        4       1.03386301      -0.31072875       0.86726860
Si       3.82335384       2.71895139      19.62280618        4       0.58408289      -0.20683247       0.04905117
Si       1.94652104       1.34965403      19.63942707        4      -0.10125343      -0.14308727       0.26584390
Si       2.03449473       0.08469826      21.66849459        4      -0.71487044      -0.90159835      -0.96282446
Si       5.83365074       1.35415520      19.69990341        4      -0.79699625       0.65518461      -0.60999540
Si       5.72204497       0.03119907      21.53324693        4       0.24303981       0.21494656       1.17991864
Si       3.91089029       4.03890142      21.53355454        4      -0.65983753       0.05631133       0.63249884
Si       7.70494981       2.71345425      19.64565147        4       0.22863570       0.06339627       0.39449322
Si       3.77661239       4.07749199      25.44455163        3       0.45405743       0.50048722      -0.05324205
Si       7.69881967       2.66268073      23.54879962        3      -0.43372805       1.00417165      -0.67416063
Si       5.72910519       1.43302934      23.57979552        3       0.10204537      -0.98576961      -0.38042376
Si       5.71962439      -0.04191422      25.46447027        3       0.04515217       0.18133505      -0.29012341
Si       1.89788160       1.36238692      23.55446735        3       0.88532193       0.14756172       0.54500470
Si       1.93772711      -0.00137714      25.51020162        3      -0.72501688      -0.04967459      -0.75125971
Si       7.65239363       4.04799525      25.45555051        3       0.32839328       0.61708688      -0.56037852
Si       3.85866047       2.79177238      23.59289454        3      -0.53607181      -0.48782883      -1.07425623
Si       0.06846598       4.05425202      29.26452821        2      -0.69501786      -0.18004074       0.01770535
Si       3.83496562       2.72863139      27.26472380        2       0.08629432      -0.09724842       0.72327765
Si       2.00931324       1.32756309      27.35791806        2      -0.99475399       0.61332829       0.31252839
Si       1.89541594      -0.02075682      29.25460096        2       0.94332906       0.15479474       0.17093894
Si       5.65536286       1.32690764      27.34603252        2       1.32699264       0.23537569       0.35857056
Si       5.83046096       0.05203135      29.36865704        2      -0.35694745      -0.55540032      -0.91021298
Si       3.89246612       4.07267098      29.18120480        2      -0.12869259      -0.09253919       1.07107779
Si       7.70645661       2.76008250      27.31297587        2      -0.30822564      -1.25854777       0.58061925
Si       3.83083298       4.17177117      33.12806403        1      -0.18373775      -1.03671411      -0.11615727
Si       0.07996415       2.65411448      31.16875795        1      -0.62853737       0.91957759       0.58698244
Si       5.80153846       1.38097348      31.23472409        1      -0.12576915       0.24763686       0.36346795
Si       5.69410113      -0.02725177      33.08180397        1       0.87167265       0.34119058       0.14565095
Si       1.87027550       1.26756392      31.23392875        1       1.17245731       0.15690000      -0.00201148
Si       1.92163223      -0.05498463      33.13816462        1      -0.46476397       0.41953175       0.18478809
Si       7.65554982       4.12870377      33.11659010        1      -0.07381543      -0.53669925      -0.34790611
Si       3.86460921       2.69715372      31.29002833        1      -0.49546125       0.25116460      -0.66311560
48
Lattice="7.679179643685906 0.0 0.0 0.0 5.43 0.0 0.0 0.0 45.11774402013624" Properties=species:S:1:pos:R:3:tags:I:1:forces:R:3 config_type=slab-displaced miller=110 energy=-236.84947575770744 label_model=mpa-0 structure_key=8bf355bfe2a3f571a9e6abd68b7cae21e03443eb053b849a03ac1494213bfb15 pbc="T T F"
Si       7.92974256       3.96070967      14.10576323        6      -1.29311036       3.43650916      -5.07841030
Si       3.84785971       2.81270228      11.95453340        6      -1.01844213      -0.08284858       0.23930146
Si       1.72095962       1.50294852      12.23190756        6       4.84193821      -2.33362273      -0.22012964
Si       1.85902248       0.05898304      13.99150407        6       2.31215289      -0.76423351      -0.13137562
Si       5.66265930       1.43828093      11.99239168        6       1.15566844       0.36222036      -0.56388202
Si       5.84896325       0.20555842      13.89096116        6       0.84600862      -2.50745680      -0.78391074
Si       4.09057895       4.04260569      13.98506040        6      -1.16051334       2.27568413      -2.38059980
Si       0.11438230       2.71140358      12.08669145        6      -4.75250073       2.73525004      -0.26817683
Si       4.04375977       4.20386368      17.62362110        5      -8.55262552      -6.56985279       0.63085730
Si       7.58319526       2.79681683      15.69529787        5      -0.97008642      -4.17903883       5.52482695
Si       5.55489590       1.30837100      15.76163461        5       3.71290294      -1.32182940       1.84667714
Si       5.60005619      -0.14738209      17.70173500        5       7.77231191       6.61813208       0.91381883
Si       1.89844397       1.34700350      15.88433398        5       0.17816524       2.44898140      -1.30864615
Si       1.92604800      -0.07113051      17.54472544        5      -0.52319339      -0.70697003       2.91481607
Si       7.50086501       3.99372445      17.79658232        5       1.31255999       1.27120421      -2.59197394
Si       4.04148935       2.72627912      15.69271659        5      -3.98372274       1.01383507       2.48834534
Si       7.69468882       4.12643264      21.58104438        4       0.20441254       0.26210970       1.21608309
Si       3.74959575       2.47539898      19.76619547        4       3.55599059       2.87695276      -0.08831080
Si       1.81279879       1.60907791      19.61495827        4      -1.63976982      -3.21362811      -0.49668860
Si       2.09255574      -0.03310103      21.62150312        4      -7.09264940       5.26953458      -0.90363455
Si       5.99762730       1.19635177      19.83755029        4      -1.12002545       5.08241520      -8.51437557
Si       5.82209647       0.14761113      21.40929114        4      -1.60870152      -5.37050488       9.23471182
Si       3.65869903       4.25136485      21.72400234        4       7.40694916      -5.63359531      -0.37464603
Si       7.54955959       2.90248456      19.67319771        4       0.28526081      -1.49922898       1.03752228
Si       3.78851239       3.85994899      25.32199880        3       0.75102043       2.41417417       2.29892372
Si       7.69116134       2.65615420      23.56428026        3      -1.68551592       0.57972729      -1.18519069
Si       5.66223223       1.37989466      23.69607282        3       2.05725536      -2.12146034      -0.73549853
Si       5.64160858      -0.07350552      25.76975054        3       0.56328689      -2.49146771      -3.91194518
Si       1.91456181       1.50338625      23.49154084        3      -0.03538037      -3.00573454       0.37770728
Si       1.93586012      -0.27848018      25.35177007        3      -1.10915491       2.60136481       0.43421080
Si       7.64004042       3.84653357      25.48195192        3      -0.31279936       1.99675653       0.33494793
Si       3.84062817       2.58096437      23.63317748        3      -0.24222291       0.95519334      -3.03073195
Si      -0.04320556       4.19307372      29.25833596        2       1.18715422      -1.59201124      -0.49396865
Si       3.82376010       2.76076302      27.30905352        2      -1.96012939       0.57665516       1.13128658
Si       1.78969827       1.45203448      27.42759123        2       1.09320806      -0.59846489      -2.21827543
Si       1.95441274      -0.03117459      29.07355708        2      -1.46369784       0.62434426       1.77445752
Si       5.61633569       1.50364194      27.16201077        2       0.57937975      -0.24273133       3.20610103
Si       5.92741206       0.12557613      29.28853992        2      -2.79747513       0.12392249      -2.15976412
Si       3.75484152       4.15993051      29.29513720        2       2.82396190      -1.24194339       0.29721162
Si       7.51368924       2.64647860      27.40638774        2       0.76968968       0.73983654       0.69251318
Si       3.78542931       4.02535038      33.26886126        1       0.74193289      -0.54241838      -0.75888405
Si      -0.06390532       2.87340230      31.21652002        1       0.31302634      -1.45430238      -1.70504892
Si       5.82983319       1.36481767      31.10066254        1       0.82337920      -0.28074672       1.90844982
Si       5.76265246      -0.06051348      33.11847009        1      -2.66819440       2.09133233      -0.24789099
Si       1.78776331       1.40574526      31.07859379        1       1.31527159      -0.33195930       0.12800618
Si       2.02068646       0.01687150      33.02990359        1      -1.81889023      -0.23947331      -0.31708123
Si       7.43411059       4.11694564      32.96370954        1       3.74194431       0.06587053       1.80765386
Si       3.97421010       2.56680053      31.23062696        1      -2.53603069       1.90351735       0.03061050
48
Lattice="7.679179643685906 0.0 0.0 3.8395898218429525 6.650364651656329 0.0 0.0 0.0 40.458812798923255" Properties=species:S:1:pos:R:3:tags:I:1:forces:R:3 config_type=slab-displaced miller=111 energy=-251.04413007925115 label_model=mpa-0 structure_key=979ede19419a0c0dbf7c21fc3c580abb36ee62bd3a42cd5fd1e5a419d91dde58 pbc="T T F"
Si      -0.09181044       0.03619454      12.76331089        6       0.00712995      -0.14003797       0.09658047
Si       3.80302499       2.26412853      11.97895400        6       1.22855940      -0.91974893      -0.56163265
Si       2.01778723       3.25957953      12.80715967        6      -1.55195194       1.06769896      -0.07320951
Si       5.67666029       5.60980412      11.99658068        6       0.40486154      -0.44461339       0.04377702
Si       3.82708839       0.01862530      12.78826570        6      -0.30366139       0.17591234      -0.20331462
Si       7.68374521       2.22729976      11.98619210        6       0.06879650       0.33363401      -0.03401625
Si       5.73975220       3.32206752      12.79371149        6       0.02906659       0.40092909      -0.56219874
Si       9.54459723       5.54375670      11.93354444        6       0.08587538      -0.42508206       0.11710005
Si       7.65161206       4.43188578      15.80856474        5       0.31175521       0.61705357       0.95243279
Si       0.04810675      -0.03451807      15.13233926        5      -1.26620802       0.84405537      -0.29018202
Si       5.71536541       1.15779497      15.93812922        5       0.35445318      -0.17465527      -1.01294199
Si       1.87885223       3.28066742      15.13140460        5       0.45353383       1.02296919      -0.09792815
Si       3.83216089       4.50375047      15.90593849        5      -0.43505847      -1.19428039       0.28469029
Si       7.57161189       6.74961329      15.15582897        5       1.07211543      -0.76607972      -0.28692505
Si       1.85493520       1.13826585      15.85615256        5       0.03424433       0.00488159       1.01500263
Si       5.73942481       3.40613336      15.11878482        5      -0.34903833      -0.64827251       0.10201707
Si       3.85412408       2.24585913      19.13571224        4       0.07158654      -1.07657093      -0.75589517
Si       7.67394110       4.39081169      18.27507615        4       0.02658895       1.83976466      -1.14170608
Si       5.73346230       5.56835032      18.95697573        4       0.15591147      -0.18204468       0.81869793
Si       5.72311174       1.07518620      18.19775204        4       0.41825042       1.00603695       1.09574460
Si       7.65764579       2.35401076      19.07989409        4       0.05210389      -2.47881341       0.09354212
Si       3.85623178       4.32582179      18.25718497        4      -0.27238094       1.39399027      -0.18173110
Si       9.60793920       5.57562759      19.00254978        4       0.07694333      -0.80140608       0.75611075
Si       1.95549173       1.14755255      18.23716632        4      -0.61753789       0.38060557       0.16496892
Si       0.02427491       0.03917624      22.12160662        3      -0.28088878      -0.09972109       0.75529700
Si       3.88350840       2.21128579      21.41078139        3      -1.17950868       0.05886881       0.69419262
Si       1.84694326       3.37451079      22.22261641        3       1.12304384      -0.36477517       0.15457941
Si       5.71840383       5.53386901      21.42467541        3       0.61731094       0.09193920      -0.76768146
Si       3.80633192       0.02999411      22.28279730        3       0.00574358      -0.22929123      -0.63167968
Si       7.69633393       2.24663502      21.44037304        3      -0.65278331       0.23600745      -0.40179335
Si       5.70117422       3.32436369      22.20213716        3       0.77606280       0.20090164      -0.00922589
Si       9.59116919       5.56721634      21.47903058        3      -0.26469595       0.32241182      -0.81286143
Si       7.68852841       4.50367519      25.32706051        2       0.18774376      -0.25813613       0.35832341
Si       0.07656146       0.07796683      24.52462373        2      -0.64655559      -0.57322193      -0.06223485
Si       5.74946104       1.12319931      25.32992477        2       0.64509765       0.50697716      -0.07812904
Si       1.89805018       3.32567542      24.59408014        2       0.23525442      -0.15841889      -0.10895675
Si       3.84000270       4.44893323      25.36036425        2       0.07092499       0.28331007      -0.35074706
Si       3.84212504       0.05359001      24.59668396        2       0.60441922      -0.42318094      -0.34490928
Si       1.99701938       1.04589927      25.37820188        2      -0.77893669       1.05276198      -0.43048829
Si       5.81572284       3.41121008      24.52051602        2      -0.57669276      -0.55990221       0.39403275
Si       3.83799348       2.21208541      28.53524643        1      -0.46431757      -0.22525959      -0.11285526
Si       7.65435637       4.40011966      27.71497467        1       0.32653990       0.23590084      -0.41854074
Si       5.74436513       5.42679409      28.46591312        1      -0.03682201       1.15005703       0.26034851
Si       5.74981771       1.14243313      27.69116806        1      -0.15744587      -0.37403836       0.06618725
Si       7.62799562       2.24372723      28.49257539        1       0.63283487      -0.69933709       0.13203527
Si       3.82037990       4.42850997      27.71834214        1      -0.29602630      -0.28149857      -0.08936683
Si       9.57073401       5.52835866      28.49454855        1       0.04061953       0.30863891       0.05236929
Si       1.89292432       1.07044987      27.64323707        1       0.01313908      -0.03691995       1.41312114
48
Lattice="7.679179643685906 0.0 0.0 3.8395898218429525 6.650364651656329 0.0 0.0 0.0 40.458812798923255" Properties=species:S:1:pos:R:3:tags:I:1:forces:R:3 config_type=slab-displaced miller=111 energy=-241.12024991500505 label_model=mpa-0 structure_key=53d3e1f884f934449a080fc2a9c94aecab1cea917ba8c89757af60c01f08d776 pbc="T T F"
Si       0.03180932       0.01312787      12.96399620        6      -0.80477540      -2.23989310      -0.80245548
Si       3.71016915       2.33536928      12.10668430        6       1.28424525      -0.54038846       0.37563654
Si       1.84425979       3.44550476      12.84643247        6      -1.02687711      -0.67396769      -0.26253369
Si       5.60074648       5.77493143      11.73717086        6       1.64900573      -1.20434488       1.02699538
Si       3.90770104       0.01044293      12.87213320        6      -0.91962972       0.30402339      -2.02395723
Si       7.63757278       1.96417910      12.05706995        6      -0.46319081       4.24896250      -0.49873034
Si       5.68889798       3.50703285      12.96543158        6       0.18713965      -0.30304343      -3.82707727
Si       9.60247990       5.57760562      11.83858549        6       0.10163540       0.34272041       0.46134981
Si       7.52326315       4.39137613      15.97122062        5       2.15326243       1.93919515       0.73295180
Si      -0.12918751       0.05320861      15.14207830        5       2.57072666      -0.81104034       1.94162609
Si       5.85510391       1.18312409      16.00033980        5      -1.31305903       0.49420925      -1.57835344
Si       1.73595170       3.25699747      15.20433461        5       1.13819308       3.82560645      -1.33234845
Si       4.15928974       4.40466024      15.88364639        5      -6.10091328       2.82393948       1.53521699
Si       7.82264625       6.69168136      15.11880343        5      -1.13388668       0.01526314       1.79710232
Si       2.00794928       1.39235925      16.09057358        5       0.18023048      -4.53372119      -2.14069614
Si       5.76786090       3.42392070      15.12971789        5       2.30560730      -3.44010712      -0.13562831
Si       3.92274710       2.19102826      19.05223481        4      -0.45378803       0.15244034      -2.25076385
Si       7.67709770       4.50805478      18.33065375        4       1.60751791      -1.84122276      -0.35238343
Si       5.82665905       5.52446182      18.97421426        4      -2.30369152       0.38044103       0.30913401
Si       5.92991440       1.19068428      18.18459378        4      -5.60657722      -3.16824098      -0.02462192
Si       7.58750403       1.96261754      18.94409247        4       5.36348301       4.53225349       3.33856135
Si       3.60393329       4.40847224      18.15436636        4       3.88097971      -1.56335650      -0.44804144
Si       9.76180986       5.52286914      19.11607709        4      -3.18141300       1.97529678       1.34059314
Si       1.91134100       1.11718692      18.22416166        4       0.91388047      -0.43077010       2.23849463
Si       0.12565557      -0.13540605      22.29655549        3      -0.91391138       1.31283501      -3.07870393
Si       3.79441991       2.07881423      21.21895511        3       0.84766675       0.83832641       3.19367084
Si       2.05288910       3.28381440      22.36869599        3      -0.00919418      -0.07876679      -3.89742485
Si       5.82942861       5.53376797      21.34189641        3       0.70378340      -0.02206019       0.41205003
Si       3.95600116       0.00818678      22.36308412        3      -1.96510310       0.47499726      -1.20928920
Si       7.84330092       2.26876627      21.38515643        3      -1.01242213      -1.18723582       0.21257194
Si       5.78834136       3.33105117      22.18195274        3      -0.12186500      -0.84207900      -0.87006550
Si       9.50423462       5.51795045      21.60638707        3       2.60278002      -0.82023910      -1.67563586
Si       7.50561726       4.57198643      25.39422055        2       1.02564069      -2.79083133       0.81151766
Si      -0.05477682      -0.21983458      24.42725800        2      -0.34658600       1.44729144       3.43763444
Si       5.62327974       1.29097076      25.42078493        2       1.44164339      -2.07675045      -1.96471404
Si       1.96138432       3.35809598      24.47899483        2      -3.06369059      -0.91550778       2.80612302
Si       3.79188637       4.22648815      25.21372168        2       0.27045217       1.99352474       2.70471868
Si       3.98055224      -0.08893979      24.61169019        2      -1.22932427       2.43847961       0.14323349
Si       1.86934539       1.08579370      25.24165916        2       0.28970468      -0.62716450      -0.24216148
Si       5.65584437       3.32156676      24.51634939        2       1.70217681       0.61869991      -0.67820224
Si       3.67672898       2.18007804      28.69478979        1       1.01229352      -0.09715257      -0.39975760
Si       8.00782427       4.42233441      27.79801532        1      -2.76530877       0.11343050      -0.61472406
Si       5.52653652       5.59696163      28.46914820        1       2.68851824      -1.24114916       0.55556973
Si       5.72240479       1.25445951      27.58681833        1      -0.08012856      -0.17246787       3.15299409
Si       7.77836758       2.20525981      28.48235544        1      -0.64788007      -0.10817456      -0.08314495
Si       3.70005829       4.45305848      27.92157617        1       0.09504469      -1.58034076      -1.99129642
Si       9.65877417       5.66634470      28.62881080        1      -0.40964752       1.79965089       0.40962552
Si       1.92748216       0.99298216      27.62198638        1      -0.14274811       1.23842924      -0.55466037
