32
Lattice="5.43 0.0 0.0 0.0 5.43 0.0 0.0 0.0 32.3625" Properties=species:S:1:pos:R:3:tags:I:1 from_key=5ecfe9acdf359d74681b3510cdbf77d1635e0a0269523bdfcfaa13af6877a9b0 energy=-166.091374223257 label_model=mpa-0 miller=100 config_type=slab-relaxed pbc="T T F"
Si       1.35750000       1.35750000       7.22782088        4
Si       2.71500000       2.71500000       8.59826463        4
Si       4.07250000       4.07250000       7.22782088        4
Si      -0.00000000      -0.00000000       8.59826463        4
Si       1.35750000       4.07250000       9.98424392        4
Si       2.71500000      -0.00000000       5.80759375        4
Si       4.07250000       1.35750000       9.98424392        4
Si       0.00000000       2.71500000       5.80759375        4
Si       1.35750000       1.35750000      12.74043761        3
Si       2.71500000       2.71500000      14.12006676        3
Si       4.07250000       4.07250000      12.74043761        3
Si       0.00000000       0.00000000      14.12006676        3
Si       1.35750000       4.07250000      15.49498989        3
Si       2.71500000      -0.00000000      11.36555370        3
Si       4.07250000       1.35750000      15.49498989        3
Si      -0.00000000       2.71500000      11.36555370        3
Si       1.35750000       1.35750000      18.24243324        2
Si       2.71500000       2.71500000      19.62206239        2
Si       4.07250000       4.07250000      18.24243324        2
Si       0.00000000       0.00000000      19.62206239        2
Si       1.35750000       4.07250000      20.99694630        2
Si       2.71500000      -0.00000000      16.86751011        2
Si       4.07250000       1.35750000      20.99694630        2
Si      -0.00000000       2.71500000      16.86751011        2
Si       1.35750000       1.35750000      23.76423537        1
Si       2.71500000       2.71500000      25.13467912        1
Si       4.07250000       4.07250000      23.76423537        1
Si      -0.00000000       0.00000000      25.13467912        1
Si       1.35750000       4.07250000      26.55490625        1
Si       2.71500000      -0.00000000      22.37825608        1
Si       4.07250000       1.35750000      26.55490625        1
Si      -0.00000000       2.71500000      22.37825608        1
32
Lattice="7.679179643685906 0.0 0.0 0.0 5.43 0.0 0.0 0.0 25.438564376450337" Properties=species:S:1:pos:R:3:tags:I:1 from_key=4401afcd4cd0ebf0491578797658bd8e3aeef8064cb3e5a313a45064fddd4dc6 energy=-166.28438298510812 label_model=mpa-0 miller=110 config_type=slab-relaxed pbc="T T F"
Si       7.67917964       4.06861938       7.84595223        4
Si       3.83958982       2.69022335       5.94269652        4
Si       1.91979491       1.38227665       5.94269652        4
Si       1.91979491       0.00388062       7.84595223        4
Si       5.75938473       1.38227665       5.94269652        4
Si       5.75938473       0.00388062       7.84595223        4
Si       3.83958982       4.06861938       7.84595223        4
Si      -0.00000000       2.69022335       5.94269652        4
Si       3.83958982       4.06520858      11.74649035        3
Si       7.67917964       2.72431960       9.79948693        3
Si       5.75938473       1.34818040       9.79948693        3
Si       5.75938473       0.00729142      11.74649035        3
Si       1.91979491       1.34818040       9.79948693        3
Si       1.91979491       0.00729142      11.74649035        3
Si       7.67917964       4.06520858      11.74649035        3
Si       3.83958982       2.72431960       9.79948693        3
Si       7.67917964       4.06318040      15.63907745        2
Si       3.83958982       2.72229142      13.69207403        2
Si       1.91979491       1.35020858      13.69207403        2
Si       1.91979491       0.00931960      15.63907745        2
Si       5.75938473       1.35020858      13.69207403        2
Si       5.75938473       0.00931960      15.63907745        2
Si       3.83958982       4.06318040      15.63907745        2
Si       7.67917964       2.72229142      13.69207403        2
Si       3.83958982       4.09727665      19.49586786        1
Si       7.67917964       2.71888062      17.59261214        1
Si       5.75938473       1.35361938      17.59261214        1
Si       5.75938473      -0.02477665      19.49586786        1
Si       1.91979491       1.35361938      17.59261214        1
Si       1.91979491      -0.02477665      19.49586786        1
Si       7.67917964       4.09727665      19.49586786        1
Si       3.83958982       2.71888062      17.59261214        1
32
Lattice="7.679179643685906 0.0 0.0 3.8395898218429525 6.650364651656329 0.0 0.0 0.0 22.18878887552392" Properties=species:S:1:pos:R:3:tags:I:1 from_key=f29b6a4938afb9314ff45c979f8c7e2aba2f28e83032c705cbf3d07283ce323b energy=-165.98593583415845 label_model=mpa-0 miller=111 config_type=slab-relaxed pbc="T T F"
Si       3.83958982       6.65036465       6.73158035        4
Si       3.83958982       2.21678822       5.92274693        4
Si       1.91979491       3.32518233       6.73158035        4
Si       5.75938473       5.54197054       5.92274693        4
Si       7.67917964       6.65036465       6.73158035        4
Si       7.67917964       2.21678822       5.92274693        4
Si       5.75938473       3.32518233       6.73158035        4
Si       9.59897455       5.54197054       5.92274693        4
Si       7.67917964       4.43357643       9.91023557        3
Si       3.83958982       6.65036465       9.10760707        3
Si       5.75938473       1.10839411       9.91023557        3
Si       1.91979491       3.32518233       9.10760707        3
Si       3.83958982       4.43357643       9.91023557        3
Si       7.67917964       6.65036465       9.10760707        3
Si       1.91979491       1.10839411       9.91023557        3
Si       5.75938473       3.32518233       9.10760707        3
Si       3.83958982       2.21678822      13.08118180        2
Si       7.67917964       4.43357643      12.27855331        2
Si       5.75938473       5.54197054      13.08118180        2
Si       5.75938473       1.10839411      12.27855331        2
Si       7.67917964       2.21678822      13.08118180        2
Si       3.83958982       4.43357643      12.27855331        2
Si       9.59897455       5.54197054      13.08118180        2
Si       1.91979491       1.10839411      12.27855331        2
Si       3.83958982       6.65036465      16.26604195        1
Si       3.83958982       2.21678822      15.45720853        1
Si       1.91979491       3.32518233      16.26604195        1
Si       5.75938473       5.54197054      15.45720853        1
Si       7.67917964       6.65036465      16.26604195        1
Si       7.67917964       2.21678822      15.45720853        1
Si       5.75938473       3.32518233      16.26604195        1
Si       9.59897455       5.54197054      15.45720853        1
32
Lattice="5.43 0.0 0.0 0.0 5.43 0.0 0.0 0.0 36.3625" Properties=species:S:1:pos:R:3:tags:I:1 from_key=617368cf53ccf0349e8281fa7456bdd92453ef207fcaf0767243d33fe844a3c7 energy=-166.09137422325693 label_model=mpa-0 miller=100 config_type=slab-relaxed pbc="T T F"
Si       1.35750000       1.35750000       9.22782088        4
Si       2.71500000       2.71500000      10.59826463        4
Si       4.07250000       4.07250000       9.22782088        4
Si      -0.00000000      -0.00000000      10.59826463        4
Si       1.35750000       4.07250000      11.98424392        4
Si       2.71500000      -0.00000000       7.80759375        4
Si       4.07250000       1.35750000      11.98424392        4
Si       0.00000000       2.71500000       7.80759375        4
Si       1.35750000       1.35750000      14.74043761        3
Si       2.71500000       2.71500000      16.12006676        3
Si       4.07250000       4.07250000      14.74043761        3
Si      -0.00000000      -0.00000000      16.12006676        3
Si       1.35750000       4.07250000      17.49498989        3
Si       2.71500000      -0.00000000      13.36555370        3
Si       4.07250000       1.35750000      17.49498989        3
Si       0.00000000       2.71500000      13.36555370        3
Si       1.35750000       1.35750000      20.24243324        2
Si       2.71500000       2.71500000      21.62206239        2
Si       4.07250000       4.07250000      20.24243324        2
Si      -0.00000000      -0.00000000      21.62206239        2
Si       1.35750000       4.07250000      22.99694630        2
Si       2.71500000       0.00000000      18.86751011        2
Si       4.07250000       1.35750000      22.99694630        2
Si      -0.00000000       2.71500000      18.86751011        2
Si       1.35750000       1.35750000      25.76423537        1
Si       2.71500000       2.71500000      27.13467912        1
Si       4.07250000       4.07250000      25.76423537        1
Si       0.00000000      -0.00000000      27.13467912        1
Si       1.35750000       4.07250000      28.55490625        1
Si       2.71500000      -0.00000000      24.37825608        1
Si       4.07250000       1.35750000      28.55490625        1
Si      -0.00000000       2.71500000      24.37825608        1
32
Lattice="7.679179643685906 0.0 0.0 0.0 5.43 0.0 0.0 0.0 29.438564376450337" Properties=species:S:1:pos:R:3:tags:I:1 from_key=8f39af8a26e238882876daf9793a97778ab54c75cea2058015b57c01c4616aee energy=-166.28438298510815 label_model=mpa-0 miller=110 config_type=slab-relaxed pbc="T T F"
Si       7.67917964       4.06861938       9.84595223        4
Si       3.83958982       2.69022335       7.94269652        4
Si       1.91979491       1.38227665       7.94269652        4
Si       1.91979491       0.00388062       9.84595223        4
Si       5.75938473       1.38227665       7.94269652        4
Si       5.75938473       0.00388062       9.84595223        4
Si       3.83958982       4.06861938       9.84595223        4
Si       0.00000000       2.69022335       7.94269652        4
Si       3.83958982       4.06520858      13.74649035        3
Si       7.67917964       2.72431960      11.79948693        3
Si       5.75938473       1.34818040      11.79948693        3
Si       5.75938473       0.00729142      13.74649035        3
Si       1.91979491       1.34818040      11.79948693        3
Si       1.91979491       0.00729142      13.74649035        3
Si       7.67917964       4.06520858      13.74649035        3
Si       3.83958982       2.72431960      11.79948693        3
Si       7.67917964       4.06318040      17.63907745        2
Si       3.83958982       2.72229142      15.69207403        2
Si       1.91979491       1.35020858      15.69207403        2
Si       1.91979491       0.00931960      17.63907745        2
Si       5.75938473       1.35020858      15.69207403        2
Si       5.75938473       0.00931960      17.63907745        2
Si       3.83958982       4.06318040      17.63907745        2
Si       7.67917964       2.72229142      15.69207403        2
Si       3.83958982       4.09727665      21.49586786        1
Si       7.67917964       2.71888062      19.59261214        1
Si       5.75938473       1.35361938      19.59261214        1
Si       5.75938473      -0.02477665      21.49586786        1
Si       1.91979491       1.35361938      19.59261214        1
Si       1.91979491      -0.02477665      21.49586786        1
Si       7.67917964       4.09727665      21.49586786        1
Si       3.83958982       2.71888062      19.59261214        1
32
Lattice="7.679179643685906 0.0 0.0 3.8395898218429525 6.650364651656329 0.0 0.0 0.0 26.18878887552392" Properties=species:S:1:pos:R:3:tags:I:1 from_key=1deaaff8a4d6c72976baa66100c9f401c71ab67bb8e16a26b31fe2be4d31e983 energy=-165.98593583415843 label_model=mpa-0 miller=111 config_type=slab-relaxed pbc="T T F"
Si       3.83958982       6.65036465       8.73158035        4
Si       3.83958982       2.21678822       7.92274693        4
Si       1.91979491       3.32518233       8.73158035        4
Si       5.75938473       5.54197054       7.92274693        4
Si       7.67917964       6.65036465       8.73158035        4
Si       7.67917964       2.21678822       7.92274693        4
Si       5.75938473       3.32518233       8.73158035        4
Si       9.59897455       5.54197054       7.92274693        4
Si       7.67917964       4.43357643      11.91023557        3
Si       3.83958982       6.65036465      11.10760707        3
Si       5.75938473       1.10839411      11.91023557        3
Si       1.91979491       3.32518233      11.10760707        3
Si       3.83958982       4.43357643      11.91023557        3
Si       7.67917964       6.65036465      11.10760707        3
Si       1.91979491       1.10839411      11.91023557        3
Si       5.75938473       3.32518233      11.10760707        3
Si       3.83958982       2.21678822      15.08118180        2
Si       7.67917964       4.43357643      14.27855331        2
Si       5.75938473       5.54197054      15.08118180        2
Si       5.75938473       1.10839411      14.27855331        2
Si       7.67917964       2.21678822      15.08118180        2
Si       3.83958982       4.43357643      14.27855331        2
Si       9.59897455       5.54197054      15.08118180        2
Si       1.91979491       1.10839411      14.27855331        2
Si       3.83958982       6.65036465      18.26604195        1
Si       3.83958982       2.21678822      17.45720853        1
Si       1.91979491       3.32518233      18.26604195        1
Si       5.75938473       5.54197054      17.45720853        1
Si       7.67917964       6.65036465      18.26604195        1
Si       7.67917964       2.21678822      17.45720853        1
Si       5.75938473       3.32518233      18.26604195        1
Si       9.59897455       5.54197054      17.45720853        1
32
Lattice="5.43 0.0 0.0 0.0 5.43 0.0 0.0 0.0 40.3625" Properties=species:S:1:pos:R:3:tags:I:1 from_key=070b9c38c0395825921612661e017f15c73317d09538a18155be158706f7a0c2 energy=-166.09137422325696 label_model=mpa-0 miller=100 config_type=slab-relaxed pbc="T T F"
Si       1.35750000       1.35750000      11.22782088        4
Si       2.71500000       2.71500000      12.59826463        4
Si       4.07250000       4.07250000      11.22782088        4
Si      -0.00000000      -0.00000000      12.59826463        4
Si       1.35750000       4.07250000      13.98424392        4
Si       2.71500000      -0.00000000       9.80759375        4
Si       4.07250000       1.35750000      13.98424392        4
Si       0.00000000       2.71500000       9.80759375        4
Si       1.35750000       1.35750000      16.74043761        3
Si       2.71500000       2.71500000      18.12006676        3
Si       4.07250000       4.07250000      16.74043761        3
Si       0.00000000      -0.00000000      18.12006676        3
Si       1.35750000       4.07250000      19.49498989        3
Si       2.71500000      -0.00000000      15.36555370        3
Si       4.07250000       1.35750000      19.49498989        3
Si       0.00000000       2.71500000      15.36555370        3
Si       1.35750000       1.35750000      22.24243324        2
Si       2.71500000       2.71500000      23.62206239        2
Si       4.07250000       4.07250000      22.24243324        2
Si       0.00000000      -0.00000000      23.62206239        2
Si       1.35750000       4.07250000      24.99694630        2
Si       2.71500000      -0.00000000      20.86751011        2
Si       4.07250000       1.35750000      24.99694630        2
Si       0.00000000       2.71500000      20.86751011        2
Si       1.35750000       1.35750000      27.76423537        1
Si       2.71500000       2.71500000      29.13467912        1
Si       4.07250000       4.07250000      27.76423537        1
Si      -0.00000000       0.00000000      29.13467912        1
Si       1.35750000       4.07250000      30.55490625        1
Si       2.71500000      -0.00000000      26.37825608        1
Si       4.07250000       1.35750000      30.55490625        1
Si       0.00000000       2.71500000      26.37825608        1
32
Lattice="7.679179643685906 0.0 0.0 0.0 5.43 0.0 0.0 0.0 33.43856437645034" Properties=species:S:1:pos:R:3:tags:I:1 from_key=8e9550dfe2b488959715c8264241b5c9d5d19b924a348bf4138ce4fe291cfb88 energy=-166.28438298510815 label_model=mpa-0 miller=110 config_type=slab-relaxed pbc="T T F"
Si       7.67917964       4.06861938      11.84595223        4
Si       3.83958982       2.69022335       9.94269652        4
Si       1.91979491       1.38227665       9.94269652        4
Si       1.91979491       0.00388062      11.84595223        4
Si       5.75938473       1.38227665       9.94269652        4
Si       5.75938473       0.00388062      11.84595223        4
Si       3.83958982       4.06861938      11.84595223        4
Si      -0.00000000       2.69022335       9.94269652        4
Si       3.83958982       4.06520858      15.74649035        3
Si       7.67917964       2.72431960      13.79948693        3
Si       5.75938473       1.34818040      13.79948693        3
Si       5.75938473       0.00729142      15.74649035        3
Si       1.91979491       1.34818040      13.79948693        3
Si       1.91979491       0.00729142      15.74649035        3
Si       7.67917964       4.06520858      15.74649035        3
Si       3.83958982       2.72431960      13.79948693        3
Si       7.67917964       4.06318040      19.63907745        2
Si       3.83958982       2.72229142      17.69207403        2
Si       1.91979491       1.35020858      17.69207403        2
Si       1.91979491       0.00931960      19.63907745        2
Si       5.75938473       1.35020858      17.69207403        2
Si       5.75938473       0.00931960      19.63907745        2
Si       3.83958982       4.06318040      19.63907745        2
Si       7.67917964       2.72229142      17.69207403        2
Si       3.83958982       4.09727665      23.49586786        1
Si       7.67917964       2.71888062      21.59261214        1
Si       5.75938473       1.35361938      21.59261214        1
Si       5.75938473      -0.02477665      23.49586786        1
Si       1.91979491       1.35361938      21.59261214        1
Si       1.91979491      -0.02477665      23.49586786        1
Si       7.67917964       4.09727665      23.49586786        1
Si       3.83958982       2.71888062      21.59261214        1
32
Lattice="7.679179643685906 0.0 0.0 3.8395898218429525 6.650364651656329 0.0 0.0 0.0 30.18878887552392" Properties=species:S:1:pos:R:3:tags:I:1 from_key=60f95a0353e6a2daed14c65bab41ad886c53b74f41fc41665f1329f2343af250 energy=-165.9859358341584 label_model=mpa-0 miller=111 config_type=slab-relaxed pbc="T T F"
Si       3.83958982       6.65036465      10.73158035        4
Si       3.83958982       2.21678822       9.92274693        4
Si       1.91979491       3.32518233      10.73158035        4
Si       5.75938473       5.54197054       9.92274693        4
Si       7.67917964       6.65036465      10.73158035        4
Si       7.67917964       2.21678822       9.92274693        4
Si       5.75938473       3.32518233      10.73158035        4
Si       9.59897455       5.54197054       9.92274693        4
Si       7.67917964       4.43357643      13.91023557        3
Si       3.83958982       6.65036465      13.10760707        3
Si       5.75938473       1.10839411      13.91023557        3
Si       1.91979491       3.32518233      13.10760707        3
Si       3.83958982       4.43357643      13.91023557        3
Si       7.67917964       6.65036465      13.10760707        3
Si       1.91979491       1.10839411      13.91023557        3
Si       5.75938473       3.32518233      13.10760707        3
Si       3.83958982       2.21678822      17.08118180        2
Si       7.67917964       4.43357643      16.27855331        2
Si       5.75938473       5.54197054      17.08118180        2
Si       5.75938473       1.10839411      16.27855331        2
Si       7.67917964       2.21678822      17.08118180        2
Si       3.83958982       4.43357643      16.27855331        2
Si       9.59897455       5.54197054      17.08118180        2
Si       1.91979491       1.10839411      16.27855331        2
Si       3.83958982       6.65036465      20.26604195        1
Si       3.83958982       2.21678822      19.45720853        1
Si       1.91979491       3.32518233      20.26604195        1
Si       5.75938473       5.54197054      19.45720853        1
Si       7.67917964       6.65036465      20.26604195        1
Si       7.67917964       2.21678822      19.45720853        1
Si       5.75938473       3.32518233      20.26604195        1
Si       9.59897455       5.54197054      19.45720853        1
32
Lattice="5.43 0.0 0.0 0.0 5.43 0.0 0.0 0.0 44.3625" Properties=species:S:1:pos:R:3:tags:I:1 from_key=f5e6c6a3d62a48338c76f81ce5c65105c0910d9cf4e5a6b4a61baa5b4f9a0651 energy=-166.09137422325696 label_model=mpa-0 miller=100 config_type=slab-relaxed pbc="T T F"
Si       1.35750000       1.35750000      13.22782088        4
Si       2.71500000       2.71500000      14.59826463        4
Si       4.07250000       4.07250000      13.22782088        4
Si       0.00000000      -0.00000000      14.59826463        4
Si       1.35750000       4.07250000      15.98424392        4
Si       2.71500000       0.00000000      11.80759375        4
Si       4.07250000       1.35750000      15.98424392        4
Si      -0.00000000       2.71500000      11.80759375        4
Si       1.35750000       1.35750000      18.74043761        3
Si       2.71500000       2.71500000      20.12006676        3
Si       4.07250000       4.07250000      18.74043761        3
Si       0.00000000      -0.00000000      20.12006676        3
Si       1.35750000       4.07250000      21.49498989        3
Si       2.71500000       0.00000000      17.36555370        3
Si       4.07250000       1.35750000      21.49498989        3
Si       0.00000000       2.71500000      17.36555370        3
Si       1.35750000       1.35750000      24.24243324        2
Si       2.71500000       2.71500000      25.62206239        2
Si       4.07250000       4.07250000      24.24243324        2
Si      -0.00000000       0.00000000      25.62206239        2
Si       1.35750000       4.07250000      26.99694630        2
Si       2.71500000       0.00000000      22.86751011        2
Si       4.07250000       1.35750000      26.99694630        2
Si      -0.00000000       2.71500000      22.86751011        2
Si       1.35750000       1.35750000      29.76423537        1
Si       2.71500000       2.71500000      31.13467912        1
Si       4.07250000       4.07250000      29.76423537        1
Si      -0.00000000       0.00000000      31.13467912        1
Si       1.35750000       4.07250000      32.55490625        1
Si       2.71500000      -0.00000000      28.37825608        1
Si       4.07250000       1.35750000      32.55490625        1
Si       0.00000000       2.71500000      28.37825608        1
32
Lattice="7.679179643685906 0.0 0.0 0.0 5.43 0.0 0.0 0.0 37.43856437645034" Properties=species:S:1:pos:R:3:tags:I:1 from_key=888002cfdb59e2af19cdcdd073de5e762127446a06c3e06360ec91c131e4ab5a energy=-166.28438298510818 label_model=mpa-0 miller=110 config_type=slab-relaxed pbc="T T F"
Si       7.67917964       4.06861938      13.84595223        4
Si       3.83958982       2.69022335      11.94269652        4
Si       1.91979491       1.38227665      11.94269652        4
Si       1.91979491       0.00388062      13.84595223        4
Si       5.75938473       1.38227665      11.94269652        4
Si       5.75938473       0.00388062      13.84595223        4
Si       3.83958982       4.06861938      13.84595223        4
Si       0.00000000       2.69022335      11.94269652        4
Si       3.83958982       4.06520858      17.74649035        3
Si       7.67917964       2.72431960      15.79948693        3
Si       5.75938473       1.34818040      15.79948693        3
Si       5.75938473       0.00729142      17.74649035        3
Si       1.91979491       1.34818040      15.79948693        3
Si       1.91979491       0.00729142      17.74649035        3
Si       7.67917964       4.06520858      17.74649035        3
Si       3.83958982       2.72431960      15.79948693        3
Si       7.67917964       4.06318040      21.63907745        2
Si       3.83958982       2.72229142      19.69207403        2
Si       1.91979491       1.35020858      19.69207403        2
Si       1.91979491       0.00931960      21.63907745        2
Si       5.75938473       1.35020858      19.69207403        2
Si       5.75938473       0.00931960      21.63907745        2
Si       3.83958982       4.06318040      21.63907745        2
Si       7.67917964       2.72229142      19.69207403        2
Si       3.83958982       4.09727665      25.49586786        1
Si       7.67917964       2.71888062      23.59261214        1
Si       5.75938473       1.35361938      23.59261214        1
Si       5.75938473      -0.02477665      25.49586786        1
Si       1.91979491       1.35361938      23.59261214        1
Si       1.91979491      -0.02477665      25.49586786        1
Si       7.67917964       4.09727665      25.49586786        1
Si       3.83958982       2.71888062      23.59261214        1
32
Lattice="7.679179643685906 0.0 0.0 3.8395898218429525 6.650364651656329 0.0 0.0 0.0 34.18878887552392" Properties=species:S:1:pos:R:3:tags:I:1 from_key=010012b76a8250bfcf467f63a6bbb66e84111121eb8764a10f0dc63c4a066a4e energy=-165.9859358341584 label_model=mpa-0 miller=111 config_type=slab-relaxed pbc="T T F"
Si       3.83958982       6.65036465      12.73158035        4
Si       3.83958982       2.21678822      11.92274693        4
Si       1.91979491       3.32518233      12.73158035        4
Si       5.75938473       5.54197054      11.92274693        4
Si       7.67917964       6.65036465      12.73158035        4
Si       7.67917964       2.21678822      11.92274693        4
Si       5.75938473       3.32518233      12.73158035        4
Si       9.59897455       5.54197054      11.92274693        4
Si       7.67917964       4.43357643      15.91023557        3
Si       3.83958982       6.65036465      15.10760707        3
Si       5.75938473       1.10839411      15.91023557        3
Si       1.91979491       3.32518233      15.10760707        3
Si       3.83958982       4.43357643      15.91023557        3
Si       7.67917964       6.65036465      15.10760707        3
Si       1.91979491       1.10839411      15.91023557        3
Si       5.75938473       3.32518233      15.10760707        3
Si       3.83958982       2.21678822      19.08118180        2
Si       7.67917964       4.43357643      18.27855331        2
Si       5.75938473       5.54197054      19.08118180        2
Si       5.75938473       1.10839411      18.27855331        2
Si       7.67917964       2.21678822      19.08118180        2
Si       3.83958982       4.43357643      18.27855331        2
Si       9.59897455       5.54197054      19.08118180        2
Si       1.91979491       1.10839411      18.27855331        2
Si       3.83958982       6.65036465      22.26604195        1
Si       3.83958982       2.21678822      21.45720853        1
Si       1.91979491       3.32518233      22.26604195        1
Si       5.75938473       5.54197054      21.45720853        1
Si       7.67917964       6.65036465      22.26604195        1
Si       7.67917964       2.21678822      21.45720853        1
Si       5.75938473       3.32518233      22.26604195        1
Si       9.59897455       5.54197054      21.45720853        1
48
Lattice="5.43 0.0 0.0 0.0 5.43 0.0 0.0 0.0 43.2225" Properties=species:S:1:pos:R:3:tags:I:1 from_key=0416f1e92fbeeaf739f374c2b973c0f279f8f298342751c6aaa5860b40b589d3 energy=-252.7154775147966 label_model=mpa-0 miller=100 config_type=slab-relaxed pbc="T T F"
Si       1.35750000       1.35750000       7.15166029        6
Si       2.71500000       2.71500000       8.52172525        6
Si       4.07250000       4.07250000       7.15166029        6
Si      -0.00000000       0.00000000       8.52172525        6
Si       1.35750000       4.07250000       9.90778510        6
Si       2.71500000      -0.00000000       5.73131831        6
Si       4.07250000       1.35750000       9.90778510        6
Si       0.00000000       2.71500000       5.73131831        6
Si       1.35750000       1.35750000      12.66495957        5
Si       2.71500000       2.71500000      14.04169003        5
Si       4.07250000       4.07250000      12.66495957        5
Si      -0.00000000       0.00000000      14.04169003        5
Si       1.35750000       4.07250000      15.41719947        5
Si       2.71500000      -0.00000000      11.29015079        5
Si       4.07250000       1.35750000      15.41719947        5
Si       0.00000000       2.71500000      11.29015079        5
Si       1.35750000       1.35750000      18.17196426        4
Si       2.71500000       2.71500000      19.54947154        4
Si       4.07250000       4.07250000      18.17196426        4
Si      -0.00000000       0.00000000      19.54947154        4
Si       1.35750000       4.07250000      20.92431490        4
Si       2.71500000      -0.00000000      16.79339636        4
Si       4.07250000       1.35750000      20.92431490        4
Si       0.00000000       2.71500000      16.79339636        4
Si       1.35750000       1.35750000      23.67302846        3
Si       2.71500000       2.71500000      25.05053574        3
Si       4.07250000       4.07250000      23.67302846        3
Si      -0.00000000       0.00000000      25.05053574        3
Si       1.35750000       4.07250000      26.42910364        3
Si       2.71500000      -0.00000000      22.29818510        3
Si       4.07250000       1.35750000      26.42910364        3
Si      -0.00000000       2.71500000      22.29818510        3
Si       1.35750000       1.35750000      29.18080997        2
Si       2.71500000       2.71500000      30.55754043        2
Si       4.07250000       4.07250000      29.18080997        2
Si       0.00000000      -0.00000000      30.55754043        2
Si       1.35750000       4.07250000      31.93234921        2
Si       2.71500000      -0.00000000      27.80530053        2
Si       4.07250000       1.35750000      31.93234921        2
Si      -0.00000000       2.71500000      27.80530053        2
Si       1.35750000       1.35750000      34.70077475        1
Si       2.71500000       2.71500000      36.07083971        1
Si       4.07250000       4.07250000      34.70077475        1
Si      -0.00000000       0.00000000      36.07083971        1
Si       1.35750000       4.07250000      37.49118169        1
Si       2.71500000      -0.00000000      33.31471490        1
Si       4.07250000       1.35750000      37.49118169        1
Si      -0.00000000       2.71500000      33.31471490        1
48
Lattice="7.679179643685906 0.0 0.0 0.0 5.43 0.0 0.0 0.0 33.11774402013624" Properties=species:S:1:pos:R:3:tags:I:1 from_key=13385699c842817793953cf9aef2396815f9c5de4b4b8d734567e9d4c9c97465 energy=-252.90184237608088 label_model=mpa-0 miller=110 config_type=slab-relaxed pbc="T T F"
Si       7.67917964       4.06424130       7.80458623        6
Si       3.83958982       2.69206063       5.89733078        6
Si       1.91979491       1.38043937       5.89733078        6
Si       1.91979491       0.00825870       7.80458623        6
Si       5.75938473       1.38043937       5.89733078        6
Si       5.75938473       0.00825870       7.80458623        6
Si       3.83958982       4.06424130       7.80458623        6
Si       0.00000000       2.69206063       5.89733078        6
Si       3.83958982       4.06933762      11.71596525        5
Si       7.67917964       2.72508831       9.77109433        5
Si       5.75938473       1.34741169       9.77109433        5
Si       5.75938473       0.00316238      11.71596525        5
Si       1.91979491       1.34741169       9.77109433        5
Si       1.91979491       0.00316238      11.71596525        5
Si       7.67917964       4.06933762      11.71596525        5
Si       3.83958982       2.72508831       9.77109433        5
Si       7.67917964       4.06979014      15.59214705        4
Si       3.83958982       2.71969943      13.65524569        4
Si       1.91979491       1.35280057      13.65524569        4
Si       1.91979491       0.00270986      15.59214705        4
Si       5.75938473       1.35280057      13.65524569        4
Si       5.75938473       0.00270986      15.59214705        4
Si       3.83958982       4.06979014      15.59214705        4
Si       7.67917964       2.71969943      13.65524569        4
Si       3.83958982       4.06780057      19.46249833        3
Si       7.67917964       2.71770986      17.52559697        3
Si       5.75938473       1.35479014      17.52559697        3
Si       5.75938473       0.00469943      19.46249833        3
Si       1.91979491       1.35479014      17.52559697        3
Si       1.91979491       0.00469943      19.46249833        3
Si       7.67917964       4.06780057      19.46249833        3
Si       3.83958982       2.71770986      17.52559697        3
Si      -0.00000000       4.06241169      23.34664969        2
Si       3.83958982       2.71816238      21.40177877        2
Si       1.91979491       1.35433762      21.40177877        2
Si       1.91979491       0.01008831      23.34664969        2
Si       5.75938473       1.35433762      21.40177877        2
Si       5.75938473       0.01008831      23.34664969        2
Si       3.83958982       4.06241169      23.34664969        2
Si       7.67917964       2.71816238      21.40177877        2
Si       3.83958982       4.09543937      27.22041324        1
Si      -0.00000000       2.72325870      25.31315779        1
Si       5.75938473       1.34924130      25.31315779        1
Si       5.75938473      -0.02293937      27.22041324        1
Si       1.91979491       1.34924130      25.31315779        1
Si       1.91979491      -0.02293937      27.22041324        1
Si       7.67917964       4.09543937      27.22041324        1
Si       3.83958982       2.72325870      25.31315779        1
48
Lattice="7.679179643685906 0.0 0.0 3.8395898218429525 6.650364651656329 0.0 0.0 0.0 28.458812798923255" Properties=species:S:1:pos:R:3:tags:I:1 from_key=391b99b64f18471850ca23c94faefe70303628f994d5e3f0671822776c35115c energy=-252.60224739147156 label_model=mpa-0 miller=111 config_type=slab-relaxed pbc="T T F"
Si       0.00000000       0.00000000       6.69424433        6
Si       3.83958982       2.21678822       5.88956959        6
Si       1.91979491       3.32518233       6.69424433        6
Si       5.75938473       5.54197054       5.88956959        6
Si       3.83958982      -0.00000000       6.69424433        6
Si       7.67917964       2.21678822       5.88956959        6
Si       5.75938473       3.32518233       6.69424433        6
Si       9.59897455       5.54197054       5.88956959        6
Si       7.67917964       4.43357643       9.88126353        5
Si      -0.00000000       0.00000000       9.07652178        5
Si       5.75938473       1.10839411       9.88126353        5
Si       1.91979491       3.32518233       9.07652178        5
Si       3.83958982       4.43357643       9.88126353        5
Si       7.67917964       6.65036465       9.07652178        5
Si       1.91979491       1.10839411       9.88126353        5
Si       5.75938473       3.32518233       9.07652178        5
Si       3.83958982       2.21678822      13.04796933        4
Si       7.67917964       4.43357643      12.24743070        4
Si       5.75938473       5.54197054      13.04796933        4
Si       5.75938473       1.10839411      12.24743070        4
Si       7.67917964       2.21678822      13.04796933        4
Si       3.83958982       4.43357643      12.24743070        4
Si       9.59897455       5.54197054      13.04796933        4
Si       1.91979491       1.10839411      12.24743070        4
Si      -0.00000000      -0.00000000      16.21138209        3
Si       3.83958982       2.21678822      15.41084347        3
Si       1.91979491       3.32518233      16.21138209        3
Si       5.75938473       5.54197054      15.41084347        3
Si       3.83958982      -0.00000000      16.21138209        3
Si       7.67917964       2.21678822      15.41084347        3
Si       5.75938473       3.32518233      16.21138209        3
Si       9.59897455       5.54197054      15.41084347        3
Si       7.67917964       4.43357643      19.38229102        2
Si       0.00000000      -0.00000000      18.57754927        2
Si       5.75938473       1.10839411      19.38229102        2
Si       1.91979491       3.32518233      18.57754927        2
Si       3.83958982       4.43357643      19.38229102        2
Si       3.83958982      -0.00000000      18.57754927        2
Si       1.91979491       1.10839411      19.38229102        2
Si       5.75938473       3.32518233      18.57754927        2
Si       3.83958982       2.21678822      22.56924321        1
Si       7.67917964       4.43357643      21.76456847        1
Si       5.75938473       5.54197054      22.56924321        1
Si       5.75938473       1.10839411      21.76456847        1
Si       7.67917964       2.21678822      22.56924321        1
Si       3.83958982       4.43357643      21.76456847        1
Si       9.59897455       5.54197054      22.56924321        1
Si       1.91979491       1.10839411      21.76456847        1
48
Lattice="5.43 0.0 0.0 0.0 5.43 0.0 0.0 0.0 47.2225" Properties=species:S:1:pos:R:3:tags:I:1 from_key=64f3f6f72d20027508e6a00bf59075b93690c078362122c8bd6c0952edb52545 energy=-252.71547751479648 label_model=mpa-0 miller=100 config_type=slab-relaxed pbc="T T F"
Si       1.35750000       1.35750000       9.15166029        6
Si       2.71500000       2.71500000      10.52172525        6
Si       4.07250000       4.07250000       9.15166029        6
Si       0.00000000      -0.00000000      10.52172525        6
Si       1.35750000       4.07250000      11.90778510        6
Si       2.71500000       0.00000000       7.73131831        6
Si       4.07250000       1.35750000      11.90778510        6
Si      -0.00000000       2.71500000       7.73131831        6
Si       1.35750000       1.35750000      14.66495957        5
Si       2.71500000       2.71500000      16.04169003        5
Si       4.07250000       4.07250000      14.66495957        5
Si       0.00000000      -0.00000000      16.04169003        5
Si       1.35750000       4.07250000      17.41719947        5
Si       2.71500000       0.00000000      13.29015079        5
Si       4.07250000       1.35750000      17.41719947        5
Si      -0.00000000       2.71500000      13.29015079        5
Si       1.35750000       1.35750000      20.17196426        4
Si       2.71500000       2.71500000      21.54947154        4
Si       4.07250000       4.07250000      20.17196426        4
Si      -0.00000000       0.00000000      21.54947154        4
Si       1.35750000       4.07250000      22.92431490        4
Si       2.71500000      -0.00000000      18.79339636        4
Si       4.07250000       1.35750000      22.92431490        4
Si      -0.00000000       2.71500000      18.79339636        4
Si       1.35750000       1.35750000      25.67302846        3
Si       2.71500000       2.71500000      27.05053574        3
Si       4.07250000       4.07250000      25.67302846        3
Si      -0.00000000      -0.00000000      27.05053574        3
Si       1.35750000       4.07250000      28.42910364        3
Si       2.71500000      -0.00000000      24.29818510        3
Si       4.07250000       1.35750000      28.42910364        3
Si      -0.00000000       2.71500000      24.29818510        3
Si       1.35750000       1.35750000      31.18080997        2
Si       2.71500000       2.71500000      32.55754043        2
Si       4.07250000       4.07250000      31.18080997        2
Si       0.00000000       0.00000000      32.55754043        2
Si       1.35750000       4.07250000      33.93234921        2
Si       2.71500000       0.00000000      29.80530053        2
Si       4.07250000       1.35750000      33.93234921        2
Si      -0.00000000       2.71500000      29.80530053        2
Si       1.35750000       1.35750000      36.70077475        1
Si       2.71500000       2.71500000      38.07083971        1
Si       4.07250000       4.07250000      36.70077475        1
Si       0.00000000       0.00000000      38.07083971        1
Si       1.35750000       4.07250000      39.49118169        1
Si       2.71500000       0.00000000      35.31471490        1
Si       4.07250000       1.35750000      39.49118169        1
Si      -0.00000000       2.71500000      35.31471490        1
48
Lattice="7.679179643685906 0.0 0.0 0.0 5.43 0.0 0.0 0.0 37.11774402013624" Properties=species:S:1:pos:R:3:tags:I:1 from_key=83d9358ccf4afcb11ba02ae757c39d7b6335983fe389f4709f455434c1cc979b energy=-252.9018423760809 label_model=mpa-0 miller=110 config_type=slab-relaxed pbc="T T F"
Si       7.67917964       4.06424130       9.80458623        6
Si       3.83958982       2.69206063       7.89733078        6
Si       1.91979491       1.38043937       7.89733078        6
Si       1.91979491       0.00825870       9.80458623        6
Si       5.75938473       1.38043937       7.89733078        6
Si       5.75938473       0.00825870       9.80458623        6
Si       3.83958982       4.06424130       9.80458623        6
Si      -0.00000000       2.69206063       7.89733078        6
Si       3.83958982       4.06933762      13.71596525        5
Si       7.67917964       2.72508831      11.77109433        5
Si       5.75938473       1.34741169      11.77109433        5
Si       5.75938473       0.00316238      13.71596525        5
Si       1.91979491       1.34741169      11.77109433        5
Si       1.91979491       0.00316238      13.71596525        5
Si       7.67917964       4.06933762      13.71596525        5
Si       3.83958982       2.72508831      11.77109433        5
Si       7.67917964       4.06979014      17.59214705        4
Si       3.83958982       2.71969943      15.65524569        4
Si       1.91979491       1.35280057      15.65524569        4
Si       1.91979491       0.00270986      17.59214705        4
Si       5.75938473       1.35280057      15.65524569        4
Si       5.75938473       0.00270986      17.59214705        4
Si       3.83958982       4.06979014      17.59214705        4
Si       7.67917964       2.71969943      15.65524569        4
Si       3.83958982       4.06780057      21.46249833        3
Si       7.67917964       2.71770986      19.52559697        3
Si       5.75938473       1.35479014      19.52559697        3
Si       5.75938473       0.00469943      21.46249833        3
Si       1.91979491       1.35479014      19.52559697        3
Si       1.91979491       0.00469943      21.46249833        3
Si       7.67917964       4.06780057      21.46249833        3
Si       3.83958982       2.71770986      19.52559697        3
Si      -0.00000000       4.06241169      25.34664969        2
Si       3.83958982       2.71816238      23.40177877        2
Si       1.91979491       1.35433762      23.40177877        2
Si       1.91979491       0.01008831      25.34664969        2
Si       5.75938473       1.35433762      23.40177877        2
Si       5.75938473       0.01008831      25.34664969        2
Si       3.83958982       4.06241169      25.34664969        2
Si       7.67917964       2.71816238      23.40177877        2
Si       3.83958982       4.09543937      29.22041324        1
Si      -0.00000000       2.72325870      27.31315779        1
Si       5.75938473       1.34924130      27.31315779        1
Si       5.75938473      -0.02293937      29.22041324        1
Si       1.91979491       1.34924130      27.31315779        1
Si       1.91979491      -0.02293937      29.22041324        1
Si       7.67917964       4.09543937      29.22041324        1
Si       3.83958982       2.72325870      27.31315779        1
48
Lattice="7.679179643685906 0.0 0.0 3.8395898218429525 6.650364651656329 0.0 0.0 0.0 32.458812798923255" Properties=species:S:1:pos:R:3:tags:I:1 from_key=27e993f6aab9fbfb558f5c9bc3fb0a34bcdee869c22af19e0aa78972470aa9f1 energy=-252.60224739147154 label_model=mpa-0 miller=111 config_type=slab-relaxed pbc="T T F"
Si       0.00000000      -0.00000000       8.69424433        6
Si       3.83958982       2.21678822       7.88956959        6
Si       1.91979491       3.32518233       8.69424433        6
Si       5.75938473       5.54197054       7.88956959        6
Si       3.83958982       0.00000000       8.69424433        6
Si       7.67917964       2.21678822       7.88956959        6
Si       5.75938473       3.32518233       8.69424433        6
Si       9.59897455       5.54197054       7.88956959        6
Si       7.67917964       4.43357643      11.88126353        5
Si       0.00000000       0.00000000      11.07652178        5
Si       5.75938473       1.10839411      11.88126353        5
Si       1.91979491       3.32518233      11.07652178        5
Si       3.83958982       4.43357643      11.88126353        5
Si       7.67917964       6.65036465      11.07652178        5
Si       1.91979491       1.10839411      11.88126353        5
Si       5.75938473       3.32518233      11.07652178        5
Si       3.83958982       2.21678822      15.04796933        4
Si       7.67917964       4.43357643      14.24743070        4
Si       5.75938473       5.54197054      15.04796933        4
Si       5.75938473       1.10839411      14.24743070        4
Si       7.67917964       2.21678822      15.04796933        4
Si       3.83958982       4.43357643      14.24743070        4
Si       9.59897455       5.54197054      15.04796933        4
Si       1.91979491       1.10839411      14.24743070        4
Si       0.00000000       0.00000000      18.21138209        3
Si       3.83958982       2.21678822      17.41084347        3
Si       1.91979491       3.32518233      18.21138209        3
Si       5.75938473       5.54197054      17.41084347        3
Si       3.83958982      -0.00000000      18.21138209        3
Si       7.67917964       2.21678822      17.41084347        3
Si       5.75938473       3.32518233      18.21138209        3
Si       9.59897455       5.54197054      17.41084347        3
Si       7.67917964       4.43357643      21.38229102        2
Si       0.00000000       0.00000000      20.57754927        2
Si       5.75938473       1.10839411      21.38229102        2
Si       1.91979491       3.32518233      20.57754927        2
Si       3.83958982       4.43357643      21.38229102        2
Si       3.83958982      -0.00000000      20.57754927        2
Si       1.91979491       1.10839411      21.38229102        2
Si       5.75938473       3.32518233      20.57754927        2
Si       3.83958982       2.21678822      24.56924321        1
Si       7.67917964       4.43357643      23.76456847        1
Si       5.75938473       5.54197054      24.56924321        1
Si       5.75938473       1.10839411      23.76456847        1
Si       7.67917964       2.21678822      24.56924321        1
Si       3.83958982       4.43357643      23.76456847        1
Si       9.59897455       5.54197054      24.56924321        1
Si       1.91979491       1.10839411      23.76456847        1
48
Lattice="5.43 0.0 0.0 0.0 5.43 0.0 0.0 0.0 51.2225" Properties=species:S:1:pos:R:3:tags:I:1 from_key=1c3c843d320e773503f8625657232589275cbe26df532a9d986a9f87d3fa4310 energy=-252.71547751479653 label_model=mpa-0 miller=100 config_type=slab-relaxed pbc="T T F"
Si       1.35750000       1.35750000      11.15166029        6
Si       2.71500000       2.71500000      12.52172525        6
Si       4.07250000       4.07250000      11.15166029        6
Si      -0.00000000       0.00000000      12.52172525        6
Si       1.35750000       4.07250000      13.90778510        6
Si       2.71500000      -0.00000000       9.73131831        6
Si       4.07250000       1.35750000      13.90778510        6
Si       0.00000000       2.71500000       9.73131831        6
Si       1.35750000       1.35750000      16.66495957        5
Si       2.71500000       2.71500000      18.04169003        5
Si       4.07250000       4.07250000      16.66495957        5
Si       0.00000000      -0.00000000      18.04169003        5
Si       1.35750000       4.07250000      19.41719947        5
Si       2.71500000      -0.00000000      15.29015079        5
Si       4.07250000       1.35750000      19.41719947        5
Si       0.00000000       2.71500000      15.29015079        5
Si       1.35750000       1.35750000      22.17196426        4
Si       2.71500000       2.71500000      23.54947154        4
Si       4.07250000       4.07250000      22.17196426        4
Si       0.00000000      -0.00000000      23.54947154        4
Si       1.35750000       4.07250000      24.92431490        4
Si       2.71500000      -0.00000000      20.79339636        4
Si       4.07250000       1.35750000      24.92431490        4
Si      -0.00000000       2.71500000      20.79339636        4
Si       1.35750000       1.35750000      27.67302846        3
Si       2.71500000       2.71500000      29.05053574        3
Si       4.07250000       4.07250000      27.67302846        3
Si       0.00000000       0.00000000      29.05053574        3
Si       1.35750000       4.07250000      30.42910364        3
Si       2.71500000      -0.00000000      26.29818510        3
Si       4.07250000       1.35750000      30.42910364        3
Si      -0.00000000       2.71500000      26.29818510        3
Si       1.35750000       1.35750000      33.18080997        2
Si       2.71500000       2.71500000      34.55754043        2
Si       4.07250000       4.07250000      33.18080997        2
Si       0.00000000      -0.00000000      34.55754043        2
Si       1.35750000       4.07250000      35.93234921        2
Si       2.71500000       0.00000000      31.80530053        2
Si       4.07250000       1.35750000      35.93234921        2
Si      -0.00000000       2.71500000      31.80530053        2
Si       1.35750000       1.35750000      38.70077475        1
Si       2.71500000       2.71500000      40.07083971        1
Si       4.07250000       4.07250000      38.70077475        1
Si      -0.00000000      -0.00000000      40.07083971        1
Si       1.35750000       4.07250000      41.49118169        1
Si       2.71500000       0.00000000      37.31471490        1
Si       4.07250000       1.35750000      41.49118169        1
Si      -0.00000000       2.71500000      37.31471490        1
48
Lattice="7.679179643685906 0.0 0.0 0.0 5.43 0.0 0.0 0.0 41.11774402013624" Properties=species:S:1:pos:R:3:tags:I:1 from_key=1f1b31905f6437aa53eb66218014338120daa13bba190776012e450532e06eaa energy=-252.9018423760809 label_model=mpa-0 miller=110 config_type=slab-relaxed pbc="T T F"
Si       7.67917964       4.06424130      11.80458623        6
Si       3.83958982       2.69206063       9.89733078        6
Si       1.91979491       1.38043937       9.89733078        6
Si       1.91979491       0.00825870      11.80458623        6
Si       5.75938473       1.38043937       9.89733078        6
Si       5.75938473       0.00825870      11.80458623        6
Si       3.83958982       4.06424130      11.80458623        6
Si       0.00000000       2.69206063       9.89733078        6
Si       3.83958982       4.06933762      15.71596525        5
Si       7.67917964       2.72508831      13.77109433        5
Si       5.75938473       1.34741169      13.77109433        5
Si       5.75938473       0.00316238      15.71596525        5
Si       1.91979491       1.34741169      13.77109433        5
Si       1.91979491       0.00316238      15.71596525        5
Si       7.67917964       4.06933762      15.71596525        5
Si       3.83958982       2.72508831      13.77109433        5
Si       7.67917964       4.06979014      19.59214705        4
Si       3.83958982       2.71969943      17.65524569        4
Si       1.91979491       1.35280057      17.65524569        4
Si       1.91979491       0.00270986      19.59214705        4
Si       5.75938473       1.35280057      17.65524569        4
Si       5.75938473       0.00270986      19.59214705        4
Si       3.83958982       4.06979014      19.59214705        4
Si       7.67917964       2.71969943      17.65524569        4
Si       3.83958982       4.06780057      23.46249833        3
Si       7.67917964       2.71770986      21.52559697        3
Si       5.75938473       1.35479014      21.52559697        3
Si       5.75938473       0.00469943      23.46249833        3
Si       1.91979491       1.35479014      21.52559697        3
Si       1.91979491       0.00469943      23.46249833        3
Si       7.67917964       4.06780057      23.46249833        3
Si       3.83958982       2.71770986      21.52559697        3
Si       0.00000000       4.06241169      27.34664969        2
Si       3.83958982       2.71816238      25.40177877        2
Si       1.91979491       1.35433762      25.40177877        2
Si       1.91979491       0.01008831      27.34664969        2
Si       5.75938473       1.35433762      25.40177877        2
Si       5.75938473       0.01008831      27.34664969        2
Si       3.83958982       4.06241169      27.34664969        2
Si       7.67917964       2.71816238      25.40177877        2
Si       3.83958982       4.09543937      31.22041324        1
Si      -0.00000000       2.72325870      29.31315779        1
Si       5.75938473       1.34924130      29.31315779        1
Si       5.75938473      -0.02293937      31.22041324        1
Si       1.91979491       1.34924130      29.31315779        1
Si       1.91979491      -0.02293937      31.22041324        1
Si       7.67917964       4.09543937      31.22041324        1
Si       3.83958982       2.72325870      29.31315779        1
48
Lattice="7.679179643685906 0.0 0.0 3.8395898218429525 6.650364651656329 0.0 0.0 0.0 36.458812798923255" Properties=species:S:1:pos:R:3:tags:I:1 from_key=c06d729761970c973dd3c98c4efd38c189390924457fcc8e3dc7ecdc127007c9 energy=-252.60224739147145 label_model=mpa-0 miller=111 config_type=slab-relaxed pbc="T T F"
Si      -0.00000000      -0.00000000      10.69424433        6
Si       3.83958982       2.21678822       9.88956959        6
Si       1.91979491       3.32518233      10.69424433        6
Si       5.75938473       5.54197054       9.88956959        6
Si       3.83958982       0.00000000      10.69424433        6
Si       7.67917964       2.21678822       9.88956959        6
Si       5.75938473       3.32518233      10.69424433        6
Si       9.59897455       5.54197054       9.88956959        6
Si       7.67917964       4.43357643      13.88126353        5
Si       0.00000000      -0.00000000      13.07652178        5
Si       5.75938473       1.10839411      13.88126353        5
Si       1.91979491       3.32518233      13.07652178        5
Si       3.83958982       4.43357643      13.88126353        5
Si       7.67917964       6.65036465      13.07652178        5
Si       1.91979491       1.10839411      13.88126353        5
Si       5.75938473       3.32518233      13.07652178        5
Si       3.83958982       2.21678822      17.04796933        4
Si       7.67917964       4.43357643      16.24743070        4
Si       5.75938473       5.54197054      17.04796933        4
Si       5.75938473       1.10839411      16.24743070        4
Si       7.67917964       2.21678822      17.04796933        4
Si       3.83958982       4.43357643      16.24743070        4
Si       9.59897455       5.54197054      17.04796933        4
Si       1.91979491       1.10839411      16.24743070        4
Si       0.00000000      -0.00000000      20.21138209        3
Si       3.83958982       2.21678822      19.41084347        3
Si       1.91979491       3.32518233      20.21138209        3
Si       5.75938473       5.54197054      19.41084347        3
Si       3.83958982      -0.00000000      20.21138209        3
Si       7.67917964       2.21678822      19.41084347        3
Si       5.75938473       3.32518233      20.21138209        3
Si       9.59897455       5.54197054      19.41084347        3
Si       7.67917964       4.43357643      23.38229102        2
Si       0.00000000       0.00000000      22.57754927        2
Si       5.75938473       1.10839411      23.38229102        2
Si       1.91979491       3.32518233      22.57754927        2
Si       3.83958982       4.43357643      23.38229102        2
Si       3.83958982      -0.00000000      22.57754927        2
Si       1.91979491       1.10839411      23.38229102        2
Si       5.75938473       3.32518233      22.57754927        2
Si       3.83958982       2.21678822      26.56924321        1
Si       7.67917964       4.43357643      25.76456847        1
Si       5.75938473       5.54197054      26.56924321        1
Si       5.75938473       1.10839411      25.76456847        1
Si       7.67917964       2.21678822      26.56924321        1
Si       3.83958982       4.43357643      25.76456847        1
Si       9.59897455       5.54197054      26.56924321        1
Si       1.91979491       1.10839411      25.76456847        1
48
Lattice="5.43 0.0 0.0 0.0 5.43 0.0 0.0 0.0 55.2225" Properties=species:S:1:pos:R:3:tags:I:1 from_key=8f56b911a8e98bfdf91d6b52b2ecaa77fac95ce4aa865dfa78ad8ddac09632ba energy=-252.71547751479656 label_model=mpa-0 miller=100 config_type=slab-relaxed pbc="T T F"
Si       1.35750000       1.35750000      13.15166029        6
Si       2.71500000       2.71500000      14.52172525        6
Si       4.07250000       4.07250000      13.15166029        6
Si       0.00000000      -0.00000000      14.52172525        6
Si       1.35750000       4.07250000      15.90778510        6
Si       2.71500000       0.00000000      11.73131831        6
Si       4.07250000       1.35750000      15.90778510        6
Si      -0.00000000       2.71500000      11.73131831        6
Si       1.35750000       1.35750000      18.66495957        5
Si       2.71500000       2.71500000      20.04169003        5
Si       4.07250000       4.07250000      18.66495957        5
Si       0.00000000       0.00000000      20.04169003        5
Si       1.35750000       4.07250000      21.41719947        5
Si       2.71500000       0.00000000      17.29015079        5
Si       4.07250000       1.35750000      21.41719947        5
Si      -0.00000000       2.71500000      17.29015079        5
Si       1.35750000       1.35750000      24.17196426        4
Si       2.71500000       2.71500000      25.54947154        4
Si       4.07250000       4.07250000      24.17196426        4
Si       0.00000000       0.00000000      25.54947154        4
Si       1.35750000       4.07250000      26.92431490        4
Si       2.71500000      -0.00000000      22.79339636        4
Si       4.07250000       1.35750000      26.92431490        4
Si      -0.00000000       2.71500000      22.79339636        4
Si       1.35750000       1.35750000      29.67302846        3
Si       2.71500000       2.71500000      31.05053574        3
Si       4.07250000       4.07250000      29.67302846        3
Si      -0.00000000       0.00000000      31.05053574        3
Si       1.35750000       4.07250000      32.42910364        3
Si       2.71500000       0.00000000      28.29818510        3
Si       4.07250000       1.35750000      32.42910364        3
Si      -0.00000000       2.71500000      28.29818510        3
Si       1.35750000       1.35750000      35.18080997        2
Si       2.71500000       2.71500000      36.55754043        2
Si       4.07250000       4.07250000      35.18080997        2
Si      -0.00000000      -0.00000000      36.55754043        2
Si       1.35750000       4.07250000      37.93234921        2
Si       2.71500000      -0.00000000      33.80530053        2
Si       4.07250000       1.35750000      37.93234921        2
Si       0.00000000       2.71500000      33.80530053        2
Si       1.35750000       1.35750000      40.70077475        1
Si       2.71500000       2.71500000      42.07083971        1
Si       4.07250000       4.07250000      40.70077475        1
Si      -0.00000000       0.00000000      42.07083971        1
Si       1.35750000       4.07250000      43.49118169        1
Si       2.71500000       0.00000000      39.31471490        1
Si       4.07250000       1.35750000      43.49118169        1
Si       0.00000000       2.71500000      39.31471490        1
48
Lattice="7.679179643685906 0.0 0.0 0.0 5.43 0.0 0.0 0.0 45.11774402013624" Properties=species:S:1:pos:R:3:tags:I:1 from_key=485e44890bc989427454598f87a214331d79b5be850085331185739aba6cf676 energy=-252.90184237608094 label_model=mpa-0 miller=110 config_type=slab-relaxed pbc="T T F"
Si       7.67917964       4.06424130      13.80458623        6
Si       3.83958982       2.69206063      11.89733078        6
Si       1.91979491       1.38043937      11.89733078        6
Si       1.91979491       0.00825870      13.80458623        6
Si       5.75938473       1.38043937      11.89733078        6
Si       5.75938473       0.00825870      13.80458623        6
Si       3.83958982       4.06424130      13.80458623        6
Si       0.00000000       2.69206063      11.89733078        6
Si       3.83958982       4.06933762      17.71596525        5
Si       7.67917964       2.72508831      15.77109433        5
Si       5.75938473       1.34741169      15.77109433        5
Si       5.75938473       0.00316238      17.71596525        5
Si       1.91979491       1.34741169      15.77109433        5
Si       1.91979491       0.00316238      17.71596525        5
Si       7.67917964       4.06933762      17.71596525        5
Si       3.83958982       2.72508831      15.77109433        5
Si       7.67917964       4.06979014      21.59214705        4
Si       3.83958982       2.71969943      19.65524569        4
Si       1.91979491       1.35280057      19.65524569        4
Si       1.91979491       0.00270986      21.59214705        4
Si       5.75938473       1.35280057      19.65524569        4
Si       5.75938473       0.00270986      21.59214705        4
Si       3.83958982       4.06979014      21.59214705        4
Si       7.67917964       2.71969943      19.65524569        4
Si       3.83958982       4.06780057      25.46249833        3
Si       7.67917964       2.71770986      23.52559697        3
Si       5.75938473       1.35479014      23.52559697        3
Si       5.75938473       0.00469943      25.46249833        3
Si       1.91979491       1.35479014      23.52559697        3
Si       1.91979491       0.00469943      25.46249833        3
Si       7.67917964       4.06780057      25.46249833        3
Si       3.83958982       2.71770986      23.52559697        3
Si      -0.00000000       4.06241169      29.34664969        2
Si       3.83958982       2.71816238      27.40177877        2
Si       1.91979491       1.35433762      27.40177877        2
Si       1.91979491       0.01008831      29.34664969        2
Si       5.75938473       1.35433762      27.40177877        2
Si       5.75938473       0.01008831      29.34664969        2
Si       3.83958982       4.06241169      29.34664969        2
Si       7.67917964       2.71816238      27.40177877        2
Si       3.83958982       4.09543937      33.22041324        1
Si      -0.00000000       2.72325870      31.31315779        1
Si       5.75938473       1.34924130      31.31315779        1
Si       5.75938473      -0.02293937      33.22041324        1
Si       1.91979491       1.34924130      31.31315779        1
Si       1.91979491      -0.02293937      33.22041324        1
Si       7.67917964       4.09543937      33.22041324        1
Si       3.83958982       2.72325870      31.31315779        1
48
Lattice="7.679179643685906 0.0 0.0 3.8395898218429525 6.650364651656329 0.0 0.0 0.0 40.458812798923255" Properties=species:S:1:pos:R:3:tags:I:1 from_key=a7c77aab23a6d7cc14491914498d473b143f62d21a7679864cddad10ac2779a9 energy=-252.6022473914715 label_model=mpa-0 miller=111 config_type=slab-relaxed pbc="T T F"
Si      -0.00000000      -0.00000000      12.69424433        6
Si       3.83958982       2.21678822      11.88956959        6
Si       1.91979491       3.32518233      12.69424433        6
Si       5.75938473       5.54197054      11.88956959        6
Si       3.83958982      -0.00000000      12.69424433        6
Si       7.67917964       2.21678822      11.88956959        6
Si       5.75938473       3.32518233      12.69424433        6
Si       9.59897455       5.54197054      11.88956959        6
Si       7.67917964       4.43357643      15.88126353        5
Si       0.00000000      -0.00000000      15.07652178        5
Si       5.75938473       1.10839411      15.88126353        5
Si       1.91979491       3.32518233      15.07652178        5
Si       3.83958982       4.43357643      15.88126353        5
Si       7.67917964       6.65036465      15.07652178        5
Si       1.91979491       1.10839411      15.88126353        5
Si       5.75938473       3.32518233      15.07652178        5
Si       3.83958982       2.21678822      19.04796933        4
Si       7.67917964       4.43357643      18.24743070        4
Si       5.75938473       5.54197054      19.04796933        4
Si       5.75938473       1.10839411      18.24743070        4
Si       7.67917964       2.21678822      19.04796933        4
Si       3.83958982       4.43357643      18.24743070        4
Si       9.59897455       5.54197054      19.04796933        4
Si       1.91979491       1.10839411      18.24743070        4
Si       0.00000000       0.00000000      22.21138209        3
Si       3.83958982       2.21678822      21.41084347        3
Si       1.91979491       3.32518233      22.21138209        3
Si       5.75938473       5.54197054      21.41084347        3
Si       3.83958982       0.00000000      22.21138209        3
Si       7.67917964       2.21678822      21.41084347        3
Si       5.75938473       3.32518233      22.21138209        3
Si       9.59897455       5.54197054      21.41084347        3
Si       7.67917964       4.43357643      25.38229102        2
Si      -0.00000000       0.00000000      24.57754927        2
Si       5.75938473       1.10839411      25.38229102        2
Si       1.91979491       3.32518233      24.57754927        2
Si       3.83958982       4.43357643      25.38229102        2
Si       3.83958982      -0.00000000      24.57754927        2
Si       1.91979491       1.10839411      25.38229102        2
Si       5.75938473       3.32518233      24.57754927        2
Si       3.83958982       2.21678822      28.56924321        1
Si       7.67917964       4.43357643      27.76456847        1
Si       5.75938473       5.54197054      28.56924321        1
Si       5.75938473       1.10839411      27.76456847        1
Si       7.67917964       2.21678822      28.56924321        1
Si       3.83958982       4.43357643      27.76456847        1
Si       9.59897455       5.54197054      28.56924321        1
Si       1.91979491       1.10839411      27.76456847        1
64
Lattice="5.43 0.0 0.0 0.0 5.43 0.0 0.0 0.0 54.082499999999996" Properties=species:S:1:pos:R:3:tags:I:1 from_key=f44c3de02f17881b8db19c1a25582096ce261bf6951943119cfc07ee043d395f energy=-339.33849172377967 label_model=mpa-0 miller=100 config_type=slab-relaxed pbc="T T F"
Si       1.35750000       1.35750000       7.07798695        8
Si       2.71500000       2.71500000       8.44856437        8
Si       4.07250000       4.07250000       7.07798695        8
Si       0.00000000      -0.00000000       8.44856437        8
Si       1.35750000       4.07250000       9.83379552        8
Si       2.71500000       0.00000000       5.65779705        8
Si       4.07250000       1.35750000       9.83379552        8
Si      -0.00000000       2.71500000       5.65779705        8
Si       1.35750000       1.35750000      12.59052900        7
Si       2.71500000       2.71500000      13.96814314        7
Si       4.07250000       4.07250000      12.59052900        7
Si       0.00000000      -0.00000000      13.96814314        7
Si       1.35750000       4.07250000      15.34289648        7
Si       2.71500000       0.00000000      11.21740762        7
Si       4.07250000       1.35750000      15.34289648        7
Si      -0.00000000       2.71500000      11.21740762        7
Si       1.35750000       1.35750000      18.09851192        6
Si       2.71500000       2.71500000      19.47121117        6
Si       4.07250000       4.07250000      18.09851192        6
Si      -0.00000000      -0.00000000      19.47121117        6
Si       1.35750000       4.07250000      20.84835646        6
Si       2.71500000       0.00000000      16.72318619        6
Si       4.07250000       1.35750000      20.84835646        6
Si      -0.00000000       2.71500000      16.72318619        6
Si       1.35750000       1.35750000      23.60759336        5
Si       2.71500000       2.71500000      24.98339072        5
Si       4.07250000       4.07250000      23.60759336        5
Si      -0.00000000       0.00000000      24.98339072        5
Si       1.35750000       4.07250000      26.35577955        5
Si       2.71500000      -0.00000000      22.22846274        5
Si       4.07250000       1.35750000      26.35577955        5
Si       0.00000000       2.71500000      22.22846274        5
Si       1.35750000       1.35750000      29.09910928        4
Si       2.71500000       2.71500000      30.47490664        4
Si       4.07250000       4.07250000      29.09910928        4
Si       0.00000000      -0.00000000      30.47490664        4
Si       1.35750000       4.07250000      31.85403726        4
Si       2.71500000      -0.00000000      27.72672045        4
Si       4.07250000       1.35750000      31.85403726        4
Si      -0.00000000       2.71500000      27.72672045        4
Si       1.35750000       1.35750000      34.61128883        3
Si       2.71500000       2.71500000      35.98398808        3
Si       4.07250000       4.07250000      34.61128883        3
Si      -0.00000000       0.00000000      35.98398808        3
Si       1.35750000       4.07250000      37.35931381        3
Si       2.71500000       0.00000000      33.23414354        3
Si       4.07250000       1.35750000      37.35931381        3
Si       0.00000000       2.71500000      33.23414354        3
Si       1.35750000       1.35750000      40.11435686        2
Si       2.71500000       2.71500000      41.49197100        2
Si       4.07250000       4.07250000      40.11435686        2
Si       0.00000000      -0.00000000      41.49197100        2
Si       1.35750000       4.07250000      42.86509238        2
Si       2.71500000      -0.00000000      38.73960352        2
Si       4.07250000       1.35750000      42.86509238        2
Si       0.00000000       2.71500000      38.73960352        2
Si       1.35750000       1.35750000      45.63393563        1
Si       2.71500000       2.71500000      47.00451305        1
Si       4.07250000       4.07250000      45.63393563        1
Si      -0.00000000       0.00000000      47.00451305        1
Si       1.35750000       4.07250000      48.42470295        1
Si       2.71500000       0.00000000      44.24870448        1
Si       4.07250000       1.35750000      48.42470295        1
Si      -0.00000000       2.71500000      44.24870448        1
64
Lattice="7.679179643685906 0.0 0.0 0.0 5.43 0.0 0.0 0.0 40.79692366382215" Properties=species:S:1:pos:R:3:tags:I:1 from_key=73a11ec251d003fc2484bbf076421144e6f81485e2f9ebd903b59b3c99dfe034 energy=-339.520472272064 label_model=mpa-0 miller=110 config_type=slab-relaxed pbc="T T F"
Si       7.67917964       4.06456322       7.76250241        8
Si       3.83958982       2.69145356       5.85372259        8
Si       1.91979491       1.38104644       5.85372259        8
Si       1.91979491       0.00793678       7.76250241        8
Si       5.75938473       1.38104644       5.85372259        8
Si       5.75938473       0.00793678       7.76250241        8
Si       3.83958982       4.06456322       7.76250241        8
Si      -0.00000000       2.69145356       5.85372259        8
Si       3.83958982       4.06588623      11.67082461        7
Si       7.67917964       2.72714777       9.72302939        7
Si       5.75938473       1.34535223       9.72302939        7
Si       5.75938473       0.00661377      11.67082461        7
Si       1.91979491       1.34535223       9.72302939        7
Si       1.91979491       0.00661377      11.67082461        7
Si       7.67917964       4.06588623      11.67082461        7
Si       3.83958982       2.72714777       9.72302939        7
Si       7.67917964       4.06608379      15.54834669        6
Si       3.83958982       2.71755052      13.60733431        6
Si       1.91979491       1.35494948      13.60733431        6
Si       1.91979491       0.00641621      15.54834669        6
Si       5.75938473       1.35494948      13.60733431        6
Si       5.75938473       0.00641621      15.54834669        6
Si       3.83958982       4.06608379      15.54834669        6
Si       7.67917964       2.71755052      13.60733431        6
Si       3.83958982       4.06948143      19.43079263        5
Si       7.67917964       2.71964851      17.49263474        5
Si       5.75938473       1.35285149      17.49263474        5
Si       5.75938473       0.00301857      19.43079263        5
Si       1.91979491       1.35285149      17.49263474        5
Si       1.91979491       0.00301857      19.43079263        5
Si       7.67917964       4.06948143      19.43079263        5
Si       3.83958982       2.71964851      17.49263474        5
Si      -0.00000000       4.06785149      23.30428892        4
Si       3.83958982       2.71801857      21.36613104        4
Si       1.91979491       1.35448143      21.36613104        4
Si       1.91979491       0.00464851      23.30428892        4
Si       5.75938473       1.35448143      21.36613104        4
Si       5.75938473       0.00464851      23.30428892        4
Si       3.83958982       4.06785149      23.30428892        4
Si       7.67917964       2.71801857      21.36613104        4
Si       3.83958982       4.06994948      27.18958936        3
Si      -0.00000000       2.72141621      25.24857697        3
Si       5.75938473       1.35108379      25.24857697        3
Si       5.75938473       0.00255052      27.18958936        3
Si       1.91979491       1.35108379      25.24857697        3
Si       1.91979491       0.00255052      27.18958936        3
Si       7.67917964       4.06994948      27.18958936        3
Si       3.83958982       2.72141621      25.24857697        3
Si      -0.00000000       4.06035223      31.07389427        2
Si       3.83958982       2.72161377      29.12609905        2
Si       1.91979491       1.35088623      29.12609905        2
Si       1.91979491       0.01214777      31.07389427        2
Si       5.75938473       1.35088623      29.12609905        2
Si       5.75938473       0.01214777      31.07389427        2
Si       3.83958982       4.06035223      31.07389427        2
Si       7.67917964       2.72161377      29.12609905        2
Si       3.83958982       4.09604644      34.94320107        1
Si       0.00000000       2.72293678      33.03442126        1
Si       5.75938473       1.34956322      33.03442126        1
Si       5.75938473      -0.02354644      34.94320107        1
Si       1.91979491       1.34956322      33.03442126        1
Si       1.91979491      -0.02354644      34.94320107        1
Si       7.67917964       4.09604644      34.94320107        1
Si       3.83958982       2.72293678      33.03442126        1
64
Lattice="7.679179643685906 0.0 0.0 3.8395898218429525 6.650364651656329 0.0 0.0 0.0 34.72883672232258" Properties=species:S:1:pos:R:3:tags:I:1 from_key=c447798e695c946ed5f75605cedc727f97dd8fca59cbad8d58e643625cfaf348 energy=-339.2193952491686 label_model=mpa-0 miller=111 config_type=slab-relaxed pbc="T T F"
Si       3.83958982       6.65036465       6.66598519        8
Si       3.83958982       2.21678822       5.85852503        8
Si       1.91979491       3.32518233       6.66598519        8
Si       5.75938473       5.54197054       5.85852503        8
Si       7.67917964       6.65036465       6.66598519        8
Si       7.67917964       2.21678822       5.85852503        8
Si       5.75938473       3.32518233       6.66598519        8
Si       9.59897455       5.54197054       5.85852503        8
Si       7.67917964       4.43357643       9.84621740        7
Si       3.83958982       6.65036465       9.04193844        7
Si       5.75938473       1.10839411       9.84621740        7
Si       1.91979491       3.32518233       9.04193844        7
Si       3.83958982       4.43357643       9.84621740        7
Si       7.67917964       6.65036465       9.04193844        7
Si       1.91979491       1.10839411       9.84621740        7
Si       5.75938473       3.32518233       9.04193844        7
Si       3.83958982       2.21678822      13.01515282        6
Si       7.67917964       4.43357643      12.21186827        6
Si       5.75938473       5.54197054      13.01515282        6
Si       5.75938473       1.10839411      12.21186827        6
Si       7.67917964       2.21678822      13.01515282        6
Si       3.83958982       4.43357643      12.21186827        6
Si       9.59897455       5.54197054      13.01515282        6
Si       1.91979491       1.10839411      12.21186827        6
Si       3.83958982       6.65036465      16.18276672        5
Si       3.83958982       2.21678822      15.38231321        5
Si       1.91979491       3.32518233      16.18276672        5
Si       5.75938473       5.54197054      15.38231321        5
Si       7.67917964       6.65036465      16.18276672        5
Si       7.67917964       2.21678822      15.38231321        5
Si       5.75938473       3.32518233      16.18276672        5
Si       9.59897455       5.54197054      15.38231321        5
Si       7.67917964       4.43357643      19.34652352        4
Si       3.83958982       6.65036465      18.54607000        4
Si       5.75938473       1.10839411      19.34652352        4
Si       1.91979491       3.32518233      18.54607000        4
Si       3.83958982       4.43357643      19.34652352        4
Si       7.67917964       6.65036465      18.54607000        4
Si       1.91979491       1.10839411      19.34652352        4
Si       5.75938473       3.32518233      18.54607000        4
Si       3.83958982       2.21678822      22.51696845        3
Si       7.67917964       4.43357643      21.71368390        3
Si       5.75938473       5.54197054      22.51696845        3
Si       5.75938473       1.10839411      21.71368390        3
Si       7.67917964       2.21678822      22.51696845        3
Si       3.83958982       4.43357643      21.71368390        3
Si       9.59897455       5.54197054      22.51696845        3
Si       1.91979491       1.10839411      21.71368390        3
Si       3.83958982       6.65036465      25.68689828        2
Si       3.83958982       2.21678822      24.88261932        2
Si       1.91979491       3.32518233      25.68689828        2
Si       5.75938473       5.54197054      24.88261932        2
Si       7.67917964       6.65036465      25.68689828        2
Si       7.67917964       2.21678822      24.88261932        2
Si       5.75938473       3.32518233      25.68689828        2
Si       9.59897455       5.54197054      24.88261932        2
Si       7.67917964       4.43357643      28.87031170        1
Si       3.83958982       6.65036465      28.06285153        1
Si       5.75938473       1.10839411      28.87031170        1
Si       1.91979491       3.32518233      28.06285153        1
Si       3.83958982       4.43357643      28.87031170        1
Si       7.67917964       6.65036465      28.06285153        1
Si       1.91979491       1.10839411      28.87031170        1
Si       5.75938473       3.32518233      28.06285153        1
64
Lattice="5.43 0.0 0.0 0.0 5.43 0.0 0.0 0.0 58.082499999999996" Properties=species:S:1:pos:R:3:tags:I:1 from_key=bf4eb614ec7358c1530d53ce501d8f4c67a98d33ac01c75ad4ff423ae9f5a390 energy=-339.3384917237798 label_model=mpa-0 miller=100 config_type=slab-relaxed pbc="T T F"
Si       1.35750000       1.35750000       9.07798695        8
Si       2.71500000       2.71500000      10.44856437        8
Si       4.07250000       4.07250000       9.07798695        8
Si      -0.00000000       0.00000000      10.44856437        8
Si       1.35750000       4.07250000      11.83379552        8
Si       2.71500000      -0.00000000       7.65779705        8
Si       4.07250000       1.35750000      11.83379552        8
Si       0.00000000       2.71500000       7.65779705        8
Si       1.35750000       1.35750000      14.59052900        7
Si       2.71500000       2.71500000      15.96814314        7
Si       4.07250000       4.07250000      14.59052900        7
Si      -0.00000000       0.00000000      15.96814314        7
Si       1.35750000       4.07250000      17.34289648        7
Si       2.71500000      -0.00000000      13.21740762        7
Si       4.07250000       1.35750000      17.34289648        7
Si       0.00000000       2.71500000      13.21740762        7
Si       1.35750000       1.35750000      20.09851192        6
Si       2.71500000       2.71500000      21.47121117        6
Si       4.07250000       4.07250000      20.09851192        6
Si      -0.00000000       0.00000000      21.47121117        6
Si       1.35750000       4.07250000      22.84835646        6
Si       2.71500000      -0.00000000      18.72318619        6
Si       4.07250000       1.35750000      22.84835646        6
Si       0.00000000       2.71500000      18.72318619        6
Si       1.35750000       1.35750000      25.60759336        5
Si       2.71500000       2.71500000      26.98339072        5
Si       4.07250000       4.07250000      25.60759336        5
Si       0.00000000       0.00000000      26.98339072        5
Si       1.35750000       4.07250000      28.35577955        5
Si       2.71500000       0.00000000      24.22846274        5
Si       4.07250000       1.35750000      28.35577955        5
Si      -0.00000000       2.71500000      24.22846274        5
Si       1.35750000       1.35750000      31.09910928        4
Si       2.71500000       2.71500000      32.47490664        4
Si       4.07250000       4.07250000      31.09910928        4
Si      -0.00000000       0.00000000      32.47490664        4
Si       1.35750000       4.07250000      33.85403726        4
Si       2.71500000       0.00000000      29.72672045        4
Si       4.07250000       1.35750000      33.85403726        4
Si      -0.00000000       2.71500000      29.72672045        4
Si       1.35750000       1.35750000      36.61128883        3
Si       2.71500000       2.71500000      37.98398808        3
Si       4.07250000       4.07250000      36.61128883        3
Si       0.00000000       0.00000000      37.98398808        3
Si       1.35750000       4.07250000      39.35931381        3
Si       2.71500000      -0.00000000      35.23414354        3
Si       4.07250000       1.35750000      39.35931381        3
Si      -0.00000000       2.71500000      35.23414354        3
Si       1.35750000       1.35750000      42.11435686        2
Si       2.71500000       2.71500000      43.49197100        2
Si       4.07250000       4.07250000      42.11435686        2
Si      -0.00000000      -0.00000000      43.49197100        2
Si       1.35750000       4.07250000      44.86509238        2
Si       2.71500000       0.00000000      40.73960352        2
Si       4.07250000       1.35750000      44.86509238        2
Si       0.00000000       2.71500000      40.73960352        2
Si       1.35750000       1.35750000      47.63393563        1
Si       2.71500000       2.71500000      49.00451305        1
Si       4.07250000       4.07250000      47.63393563        1
Si       0.00000000       0.00000000      49.00451305        1
Si       1.35750000       4.07250000      50.42470295        1
Si       2.71500000       0.00000000      46.24870448        1
Si       4.07250000       1.35750000      50.42470295        1
Si      -0.00000000       2.71500000      46.24870448        1
64
Lattice="7.679179643685906 0.0 0.0 0.0 5.43 0.0 0.0 0.0 44.79692366382215" Properties=species:S:1:pos:R:3:tags:I:1 from_key=6542eefab2222262b0d94aa8dcdd25f4132d0e3d9cd52d15f79716e87e242c4e energy=-339.52047227206407 label_model=mpa-0 miller=110 config_type=slab-relaxed pbc="T T F"
Si       7.67917964       4.06456322       9.76250241        8
Si       3.83958982       2.69145356       7.85372259        8
Si       1.91979491       1.38104644       7.85372259        8
Si       1.91979491       0.00793678       9.76250241        8
Si       5.75938473       1.38104644       7.85372259        8
Si       5.75938473       0.00793678       9.76250241        8
Si       3.83958982       4.06456322       9.76250241        8
Si      -0.00000000       2.69145356       7.85372259        8
Si       3.83958982       4.06588623      13.67082461        7
Si       7.67917964       2.72714777      11.72302939        7
Si       5.75938473       1.34535223      11.72302939        7
Si       5.75938473       0.00661377      13.67082461        7
Si       1.91979491       1.34535223      11.72302939        7
Si       1.91979491       0.00661377      13.67082461        7
Si       7.67917964       4.06588623      13.67082461        7
Si       3.83958982       2.72714777      11.72302939        7
Si       7.67917964       4.06608379      17.54834669        6
Si       3.83958982       2.71755052      15.60733431        6
Si       1.91979491       1.35494948      15.60733431        6
Si       1.91979491       0.00641621      17.54834669        6
Si       5.75938473       1.35494948      15.60733431        6
Si       5.75938473       0.00641621      17.54834669        6
Si       3.83958982       4.06608379      17.54834669        6
Si       7.67917964       2.71755052      15.60733431        6
Si       3.83958982       4.06948143      21.43079263        5
Si       7.67917964       2.71964851      19.49263474        5
Si       5.75938473       1.35285149      19.49263474        5
Si       5.75938473       0.00301857      21.43079263        5
Si       1.91979491       1.35285149      19.49263474        5
Si       1.91979491       0.00301857      21.43079263        5
Si       7.67917964       4.06948143      21.43079263        5
Si       3.83958982       2.71964851      19.49263474        5
Si       0.00000000       4.06785149      25.30428892        4
Si       3.83958982       2.71801857      23.36613104        4
Si       1.91979491       1.35448143      23.36613104        4
Si       1.91979491       0.00464851      25.30428892        4
Si       5.75938473       1.35448143      23.36613104        4
Si       5.75938473       0.00464851      25.30428892        4
Si       3.83958982       4.06785149      25.30428892        4
Si       7.67917964       2.71801857      23.36613104        4
Si       3.83958982       4.06994948      29.18958936        3
Si       0.00000000       2.72141621      27.24857697        3
Si       5.75938473       1.35108379      27.24857697        3
Si       5.75938473       0.00255052      29.18958936        3
Si       1.91979491       1.35108379      27.24857697        3
Si       1.91979491       0.00255052      29.18958936        3
Si       7.67917964       4.06994948      29.18958936        3
Si       3.83958982       2.72141621      27.24857697        3
Si      -0.00000000       4.06035223      33.07389427        2
Si       3.83958982       2.72161377      31.12609905        2
Si       1.91979491       1.35088623      31.12609905        2
Si       1.91979491       0.01214777      33.07389427        2
Si       5.75938473       1.35088623      31.12609905        2
Si       5.75938473       0.01214777      33.07389427        2
Si       3.83958982       4.06035223      33.07389427        2
Si       7.67917964       2.72161377      31.12609905        2
Si       3.83958982       4.09604644      36.94320107        1
Si       0.00000000       2.72293678      35.03442126        1
Si       5.75938473       1.34956322      35.03442126        1
Si       5.75938473      -0.02354644      36.94320107        1
Si       1.91979491       1.34956322      35.03442126        1
Si       1.91979491      -0.02354644      36.94320107        1
Si       7.67917964       4.09604644      36.94320107        1
Si       3.83958982       2.72293678      35.03442126        1
64
Lattice="7.679179643685906 0.0 0.0 3.8395898218429525 6.650364651656329 0.0 0.0 0.0 38.72883672232258" Properties=species:S:1:pos:R:3:tags:I:1 from_key=950293d5e5f3b3e3aba2f862208861c4d4bd6b75ce85a5d53dea12dcd4440b3b energy=-339.21939524916866 label_model=mpa-0 miller=111 config_type=slab-relaxed pbc="T T F"
Si       3.83958982       6.65036465       8.66598519        8
Si       3.83958982       2.21678822       7.85852503        8
Si       1.91979491       3.32518233       8.66598519        8
Si       5.75938473       5.54197054       7.85852503        8
Si       7.67917964       6.65036465       8.66598519        8
Si       7.67917964       2.21678822       7.85852503        8
Si       5.75938473       3.32518233       8.66598519        8
Si       9.59897455       5.54197054       7.85852503        8
Si       7.67917964       4.43357643      11.84621740        7
Si       3.83958982       6.65036465      11.04193844        7
Si       5.75938473       1.10839411      11.84621740        7
Si       1.91979491       3.32518233      11.04193844        7
Si       3.83958982       4.43357643      11.84621740        7
Si       7.67917964       6.65036465      11.04193844        7
Si       1.91979491       1.10839411      11.84621740        7
Si       5.75938473       3.32518233      11.04193844        7
Si       3.83958982       2.21678822      15.01515282        6
Si       7.67917964       4.43357643      14.21186827        6
Si       5.75938473       5.54197054      15.01515282        6
Si       5.75938473       1.10839411      14.21186827        6
Si       7.67917964       2.21678822      15.01515282        6
Si       3.83958982       4.43357643      14.21186827        6
Si       9.59897455       5.54197054      15.01515282        6
Si       1.91979491       1.10839411      14.21186827        6
Si       3.83958982       6.65036465      18.18276672        5
Si       3.83958982       2.21678822      17.38231321        5
Si       1.91979491       3.32518233      18.18276672        5
Si       5.75938473       5.54197054      17.38231321        5
Si       7.67917964       6.65036465      18.18276672        5
Si       7.67917964       2.21678822      17.38231321        5
Si       5.75938473       3.32518233      18.18276672        5
Si       9.59897455       5.54197054      17.38231321        5
Si       7.67917964       4.43357643      21.34652352        4
Si       3.83958982       6.65036465      20.54607000        4
Si       5.75938473       1.10839411      21.34652352        4
Si       1.91979491       3.32518233      20.54607000        4
Si       3.83958982       4.43357643      21.34652352        4
Si       7.67917964       6.65036465      20.54607000        4
Si       1.91979491       1.10839411      21.34652352        4
Si       5.75938473       3.32518233      20.54607000        4
Si       3.83958982       2.21678822      24.51696845        3
Si       7.67917964       4.43357643      23.71368390        3
Si       5.75938473       5.54197054      24.51696845        3
Si       5.75938473       1.10839411      23.71368390        3
Si       7.67917964       2.21678822      24.51696845        3
Si       3.83958982       4.43357643      23.71368390        3
Si       9.59897455       5.54197054      24.51696845        3
Si       1.91979491       1.10839411      23.71368390        3
Si       3.83958982       6.65036465      27.68689828        2
Si       3.83958982       2.21678822      26.88261932        2
Si       1.91979491       3.32518233      27.68689828        2
Si       5.75938473       5.54197054      26.88261932        2
Si       7.67917964       6.65036465      27.68689828        2
Si       7.67917964       2.21678822      26.88261932        2
Si       5.75938473       3.32518233      27.68689828        2
Si       9.59897455       5.54197054      26.88261932        2
Si       7.67917964       4.43357643      30.87031170        1
Si       3.83958982       6.65036465      30.06285153        1
Si       5.75938473       1.10839411      30.87031170        1
Si       1.91979491       3.32518233      30.06285153        1
Si       3.83958982       4.43357643      30.87031170        1
Si       7.67917964       6.65036465      30.06285153        1
Si       1.91979491       1.10839411      30.87031170        1
Si       5.75938473       3.32518233      30.06285153        1
64
Lattice="5.43 0.0 0.0 0.0 5.43 0.0 0.0 0.0 62.082499999999996" Properties=species:S:1:pos:R:3:tags:I:1 from_key=9580d07a7f6beff95ec83e566cd5f1332b318061a3b7e4398f91ffb2100f6887 energy=-339.3384917237797 label_model=mpa-0 miller=100 config_type=slab-relaxed pbc="T T F"
Si       1.35750000       1.35750000      11.07798695        8
Si       2.71500000       2.71500000      12.44856437        8
Si       4.07250000       4.07250000      11.07798695        8
Si       0.00000000      -0.00000000      12.44856437        8
Si       1.35750000       4.07250000      13.83379552        8
Si       2.71500000       0.00000000       9.65779705        8
Si       4.07250000       1.35750000      13.83379552        8
Si      -0.00000000       2.71500000       9.65779705        8
Si       1.35750000       1.35750000      16.59052900        7
Si       2.71500000       2.71500000      17.96814314        7
Si       4.07250000       4.07250000      16.59052900        7
Si       0.00000000      -0.00000000      17.96814314        7
Si       1.35750000       4.07250000      19.34289648        7
Si       2.71500000       0.00000000      15.21740762        7
Si       4.07250000       1.35750000      19.34289648        7
Si      -0.00000000       2.71500000      15.21740762        7
Si       1.35750000       1.35750000      22.09851192        6
Si       2.71500000       2.71500000      23.47121117        6
Si       4.07250000       4.07250000      22.09851192        6
Si      -0.00000000      -0.00000000      23.47121117        6
Si       1.35750000       4.07250000      24.84835646        6
Si       2.71500000       0.00000000      20.72318619        6
Si       4.07250000       1.35750000      24.84835646        6
Si      -0.00000000       2.71500000      20.72318619        6
Si       1.35750000       1.35750000      27.60759336        5
Si       2.71500000       2.71500000      28.98339072        5
Si       4.07250000       4.07250000      27.60759336        5
Si       0.00000000       0.00000000      28.98339072        5
Si       1.35750000       4.07250000      30.35577955        5
Si       2.71500000      -0.00000000      26.22846274        5
Si       4.07250000       1.35750000      30.35577955        5
Si      -0.00000000       2.71500000      26.22846274        5
Si       1.35750000       1.35750000      33.09910928        4
Si       2.71500000       2.71500000      34.47490664        4
Si       4.07250000       4.07250000      33.09910928        4
Si      -0.00000000      -0.00000000      34.47490664        4
Si       1.35750000       4.07250000      35.85403726        4
Si       2.71500000       0.00000000      31.72672045        4
Si       4.07250000       1.35750000      35.85403726        4
Si       0.00000000       2.71500000      31.72672045        4
Si       1.35750000       1.35750000      38.61128883        3
Si       2.71500000       2.71500000      39.98398808        3
Si       4.07250000       4.07250000      38.61128883        3
Si       0.00000000       0.00000000      39.98398808        3
Si       1.35750000       4.07250000      41.35931381        3
Si       2.71500000      -0.00000000      37.23414354        3
Si       4.07250000       1.35750000      41.35931381        3
Si       0.00000000       2.71500000      37.23414354        3
Si       1.35750000       1.35750000      44.11435686        2
Si       2.71500000       2.71500000      45.49197100        2
Si       4.07250000       4.07250000      44.11435686        2
Si      -0.00000000      -0.00000000      45.49197100        2
Si       1.35750000       4.07250000      46.86509238        2
Si       2.71500000       0.00000000      42.73960352        2
Si       4.07250000       1.35750000      46.86509238        2
Si       0.00000000       2.71500000      42.73960352        2
Si       1.35750000       1.35750000      49.63393563        1
Si       2.71500000       2.71500000      51.00451305        1
Si       4.07250000       4.07250000      49.63393563        1
Si       0.00000000      -0.00000000      51.00451305        1
Si       1.35750000       4.07250000      52.42470295        1
Si       2.71500000       0.00000000      48.24870448        1
Si       4.07250000       1.35750000      52.42470295        1
Si      -0.00000000       2.71500000      48.24870448        1
64
Lattice="7.679179643685906 0.0 0.0 0.0 5.43 0.0 0.0 0.0 48.79692366382215" Properties=species:S:1:pos:R:3:tags:I:1 from_key=50141a12f59b41c56a51858770bc46ca397e4e3a188ce7e2565931b1726bf08c energy=-339.52047227206407 label_model=mpa-0 miller=110 config_type=slab-relaxed pbc="T T F"
Si       7.67917964       4.06456322      11.76250241        8
Si       3.83958982       2.69145356       9.85372259        8
Si       1.91979491       1.38104644       9.85372259        8
Si       1.91979491       0.00793678      11.76250241        8
Si       5.75938473       1.38104644       9.85372259        8
Si       5.75938473       0.00793678      11.76250241        8
Si       3.83958982       4.06456322      11.76250241        8
Si      -0.00000000       2.69145356       9.85372259        8
Si       3.83958982       4.06588623      15.67082461        7
Si       7.67917964       2.72714777      13.72302939        7
Si       5.75938473       1.34535223      13.72302939        7
Si       5.75938473       0.00661377      15.67082461        7
Si       1.91979491       1.34535223      13.72302939        7
Si       1.91979491       0.00661377      15.67082461        7
Si       7.67917964       4.06588623      15.67082461        7
Si       3.83958982       2.72714777      13.72302939        7
Si       7.67917964       4.06608379      19.54834669        6
Si       3.83958982       2.71755052      17.60733431        6
Si       1.91979491       1.35494948      17.60733431        6
Si       1.91979491       0.00641621      19.54834669        6
Si       5.75938473       1.35494948      17.60733431        6
Si       5.75938473       0.00641621      19.54834669        6
Si       3.83958982       4.06608379      19.54834669        6
Si       7.67917964       2.71755052      17.60733431        6
Si       3.83958982       4.06948143      23.43079263        5
Si       7.67917964       2.71964851      21.49263474        5
Si       5.75938473       1.35285149      21.49263474        5
Si       5.75938473       0.00301857      23.43079263        5
Si       1.91979491       1.35285149      21.49263474        5
Si       1.91979491       0.00301857      23.43079263        5
Si       7.67917964       4.06948143      23.43079263        5
Si       3.83958982       2.71964851      21.49263474        5
Si       0.00000000       4.06785149      27.30428892        4
Si       3.83958982       2.71801857      25.36613104        4
Si       1.91979491       1.35448143      25.36613104        4
Si       1.91979491       0.00464851      27.30428892        4
Si       5.75938473       1.35448143      25.36613104        4
Si       5.75938473       0.00464851      27.30428892        4
Si       3.83958982       4.06785149      27.30428892        4
Si       7.67917964       2.71801857      25.36613104        4
Si       3.83958982       4.06994948      31.18958936        3
Si       0.00000000       2.72141621      29.24857697        3
Si       5.75938473       1.35108379      29.24857697        3
Si       5.75938473       0.00255052      31.18958936        3
Si       1.91979491       1.35108379      29.24857697        3
Si       1.91979491       0.00255052      31.18958936        3
Si       7.67917964       4.06994948      31.18958936        3
Si       3.83958982       2.72141621      29.24857697        3
Si      -0.00000000       4.06035223      35.07389427        2
Si       3.83958982       2.72161377      33.12609905        2
Si       1.91979491       1.35088623      33.12609905        2
Si       1.91979491       0.01214777      35.07389427        2
Si       5.75938473       1.35088623      33.12609905        2
Si       5.75938473       0.01214777      35.07389427        2
Si       3.83958982       4.06035223      35.07389427        2
Si       7.67917964       2.72161377      33.12609905        2
Si       3.83958982       4.09604644      38.94320107        1
Si       0.00000000       2.72293678      37.03442126        1
Si       5.75938473       1.34956322      37.03442126        1
Si       5.75938473      -0.02354644      38.94320107        1
Si       1.91979491       1.34956322      37.03442126        1
Si       1.91979491      -0.02354644      38.94320107        1
Si       7.67917964       4.09604644      38.94320107        1
Si       3.83958982       2.72293678      37.03442126        1
64
Lattice="7.679179643685906 0.0 0.0 3.8395898218429525 6.650364651656329 0.0 0.0 0.0 42.72883672232258" Properties=species:S:1:pos:R:3:tags:I:1 from_key=661bddf7ad7c10940df11267784282b0961d879d21e643a3ca077a9341101e4c energy=-339.2193952491685 label_model=mpa-0 miller=111 config_type=slab-relaxed pbc="T T F"
Si       3.83958982       6.65036465      10.66598519        8
Si       3.83958982       2.21678822       9.85852503        8
Si       1.91979491       3.32518233      10.66598519        8
Si       5.75938473       5.54197054       9.85852503        8
Si       7.67917964       6.65036465      10.66598519        8
Si       7.67917964       2.21678822       9.85852503        8
Si       5.75938473       3.32518233      10.66598519        8
Si       9.59897455       5.54197054       9.85852503        8
Si       7.67917964       4.43357643      13.84621740        7
Si       3.83958982       6.65036465      13.04193844        7
Si       5.75938473       1.10839411      13.84621740        7
Si       1.91979491       3.32518233      13.04193844        7
Si       3.83958982       4.43357643      13.84621740        7
Si       7.67917964       6.65036465      13.04193844        7
Si       1.91979491       1.10839411      13.84621740        7
Si       5.75938473       3.32518233      13.04193844        7
Si       3.83958982       2.21678822      17.01515282        6
Si       7.67917964       4.43357643      16.21186827        6
Si       5.75938473       5.54197054      17.01515282        6
Si       5.75938473       1.10839411      16.21186827        6
Si       7.67917964       2.21678822      17.01515282        6
Si       3.83958982       4.43357643      16.21186827        6
Si       9.59897455       5.54197054      17.01515282        6
Si       1.91979491       1.10839411      16.21186827        6
Si       3.83958982       6.65036465      20.18276672        5
Si       3.83958982       2.21678822      19.38231321        5
Si       1.91979491       3.32518233      20.18276672        5
Si       5.75938473       5.54197054      19.38231321        5
Si       7.67917964       6.65036465      20.18276672        5
Si       7.67917964       2.21678822      19.38231321        5
Si       5.75938473       3.32518233      20.18276672        5
Si       9.59897455       5.54197054      19.38231321        5
Si       7.67917964       4.43357643      23.34652352        4
Si       3.83958982       6.65036465      22.54607000        4
Si       5.75938473       1.10839411      23.34652352        4
Si       1.91979491       3.32518233      22.54607000        4
Si       3.83958982       4.43357643      23.34652352        4
Si       7.67917964       6.65036465      22.54607000        4
Si       1.91979491       1.10839411      23.34652352        4
Si       5.75938473       3.32518233      22.54607000        4
Si       3.83958982       2.21678822      26.51696845        3
Si       7.67917964       4.43357643      25.71368390        3
Si       5.75938473       5.54197054      26.51696845        3
Si       5.75938473       1.10839411      25.71368390        3
Si       7.67917964       2.21678822      26.51696845        3
Si       3.83958982       4.43357643      25.71368390        3
Si       9.59897455       5.54197054      26.51696845        3
Si       1.91979491       1.10839411      25.71368390        3
Si       3.83958982       6.65036465      29.68689828        2
Si       3.83958982       2.21678822      28.88261932        2
Si       1.91979491       3.32518233      29.68689828        2
Si       5.75938473       5.54197054      28.88261932        2
Si       7.67917964       6.65036465      29.68689828        2
Si       7.67917964       2.21678822      28.88261932        2
Si       5.75938473       3.32518233      29.68689828        2
Si       9.59897455       5.54197054      28.88261932        2
Si       7.67917964       4.43357643      32.87031170        1
Si       3.83958982       6.65036465      32.06285153        1
Si       5.75938473       1.10839411      32.87031170        1
Si       1.91979491       3.32518233      32.06285153        1
Si       3.83958982       4.43357643      32.87031170        1
Si       7.67917964       6.65036465      32.06285153        1
Si       1.91979491       1.10839411      32.87031170        1
Si       5.75938473       3.32518233      32.06285153        1
64
Lattice="5.43 0.0 0.0 0.0 5.43 0.0 0.0 0.0 66.0825" Properties=species:S:1:pos:R:3:tags:I:1 from_key=e34736d26e9dd82ba09f5b5196b2462a56288561b687c986e2ea0d4d8a032dda energy=-339.3384917237798 label_model=mpa-0 miller=100 config_type=slab-relaxed pbc="T T F"
Si       1.35750000       1.35750000      13.07798695        8
Si       2.71500000       2.71500000      14.44856437        8
Si       4.07250000       4.07250000      13.07798695        8
Si      -0.00000000       0.00000000      14.44856437        8
Si       1.35750000       4.07250000      15.83379552        8
Si       2.71500000      -0.00000000      11.65779705        8
Si       4.07250000       1.35750000      15.83379552        8
Si       0.00000000       2.71500000      11.65779705        8
Si       1.35750000       1.35750000      18.59052900        7
Si       2.71500000       2.71500000      19.96814314        7
Si       4.07250000       4.07250000      18.59052900        7
Si      -0.00000000       0.00000000      19.96814314        7
Si       1.35750000       4.07250000      21.34289648        7
Si       2.71500000      -0.00000000      17.21740762        7
Si       4.07250000       1.35750000      21.34289648        7
Si       0.00000000       2.71500000      17.21740762        7
Si       1.35750000       1.35750000      24.09851192        6
Si       2.71500000       2.71500000      25.47121117        6
Si       4.07250000       4.07250000      24.09851192        6
Si      -0.00000000       0.00000000      25.47121117        6
Si       1.35750000       4.07250000      26.84835646        6
Si       2.71500000      -0.00000000      22.72318619        6
Si       4.07250000       1.35750000      26.84835646        6
Si       0.00000000       2.71500000      22.72318619        6
Si       1.35750000       1.35750000      29.60759336        5
Si       2.71500000       2.71500000      30.98339072        5
Si       4.07250000       4.07250000      29.60759336        5
Si       0.00000000      -0.00000000      30.98339072        5
Si       1.35750000       4.07250000      32.35577955        5
Si       2.71500000      -0.00000000      28.22846274        5
Si       4.07250000       1.35750000      32.35577955        5
Si      -0.00000000       2.71500000      28.22846274        5
Si       1.35750000       1.35750000      35.09910928        4
Si       2.71500000       2.71500000      36.47490664        4
Si       4.07250000       4.07250000      35.09910928        4
Si      -0.00000000      -0.00000000      36.47490664        4
Si       1.35750000       4.07250000      37.85403726        4
Si       2.71500000       0.00000000      33.72672045        4
Si       4.07250000       1.35750000      37.85403726        4
Si       0.00000000       2.71500000      33.72672045        4
Si       1.35750000       1.35750000      40.61128883        3
Si       2.71500000       2.71500000      41.98398808        3
Si       4.07250000       4.07250000      40.61128883        3
Si       0.00000000      -0.00000000      41.98398808        3
Si       1.35750000       4.07250000      43.35931381        3
Si       2.71500000      -0.00000000      39.23414354        3
Si       4.07250000       1.35750000      43.35931381        3
Si      -0.00000000       2.71500000      39.23414354        3
Si       1.35750000       1.35750000      46.11435686        2
Si       2.71500000       2.71500000      47.49197100        2
Si       4.07250000       4.07250000      46.11435686        2
Si      -0.00000000       0.00000000      47.49197100        2
Si       1.35750000       4.07250000      48.86509238        2
Si       2.71500000       0.00000000      44.73960352        2
Si       4.07250000       1.35750000      48.86509238        2
Si      -0.00000000       2.71500000      44.73960352        2
Si       1.35750000       1.35750000      51.63393563        1
Si       2.71500000       2.71500000      53.00451305        1
Si       4.07250000       4.07250000      51.63393563        1
Si      -0.00000000       0.00000000      53.00451305        1
Si       1.35750000       4.07250000      54.42470295        1
Si       2.71500000       0.00000000      50.24870448        1
Si       4.07250000       1.35750000      54.42470295        1
Si       0.00000000       2.71500000      50.24870448        1
64
Lattice="7.679179643685906 0.0 0.0 0.0 5.43 0.0 0.0 0.0 52.79692366382215" Properties=species:S:1:pos:R:3:tags:I:1 from_key=b040e34ba943e5e5a6cf81b95e8ddb765594e9de183f0fb89948d02877ca6d6f energy=-339.52047227206407 label_model=mpa-0 miller=110 config_type=slab-relaxed pbc="T T F"
Si       7.67917964       4.06456322      13.76250241        8
Si       3.83958982       2.69145356      11.85372259        8
Si       1.91979491       1.38104644      11.85372259        8
Si       1.91979491       0.00793678      13.76250241        8
Si       5.75938473       1.38104644      11.85372259        8
Si       5.75938473       0.00793678      13.76250241        8
Si       3.83958982       4.06456322      13.76250241        8
Si       0.00000000       2.69145356      11.85372259        8
Si       3.83958982       4.06588623      17.67082461        7
Si       7.67917964       2.72714777      15.72302939        7
Si       5.75938473       1.34535223      15.72302939        7
Si       5.75938473       0.00661377      17.67082461        7
Si       1.91979491       1.34535223      15.72302939        7
Si       1.91979491       0.00661377      17.67082461        7
Si       7.67917964       4.06588623      17.67082461        7
Si       3.83958982       2.72714777      15.72302939        7
Si       7.67917964       4.06608379      21.54834669        6
Si       3.83958982       2.71755052      19.60733431        6
Si       1.91979491       1.35494948      19.60733431        6
Si       1.91979491       0.00641621      21.54834669        6
Si       5.75938473       1.35494948      19.60733431        6
Si       5.75938473       0.00641621      21.54834669        6
Si       3.83958982       4.06608379      21.54834669        6
Si       7.67917964       2.71755052      19.60733431        6
Si       3.83958982       4.06948143      25.43079263        5
Si       7.67917964       2.71964851      23.49263474        5
Si       5.75938473       1.35285149      23.49263474        5
Si       5.75938473       0.00301857      25.43079263        5
Si       1.91979491       1.35285149      23.49263474        5
Si       1.91979491       0.00301857      25.43079263        5
Si       7.67917964       4.06948143      25.43079263        5
Si       3.83958982       2.71964851      23.49263474        5
Si       0.00000000       4.06785149      29.30428892        4
Si       3.83958982       2.71801857      27.36613104        4
Si       1.91979491       1.35448143      27.36613104        4
Si       1.91979491       0.00464851      29.30428892        4
Si       5.75938473       1.35448143      27.36613104        4
Si       5.75938473       0.00464851      29.30428892        4
Si       3.83958982       4.06785149      29.30428892        4
Si       7.67917964       2.71801857      27.36613104        4
Si       3.83958982       4.06994948      33.18958936        3
Si       0.00000000       2.72141621      31.24857697        3
Si       5.75938473       1.35108379      31.24857697        3
Si       5.75938473       0.00255052      33.18958936        3
Si       1.91979491       1.35108379      31.24857697        3
Si       1.91979491       0.00255052      33.18958936        3
Si       7.67917964       4.06994948      33.18958936        3
Si       3.83958982       2.72141621      31.24857697        3
Si      -0.00000000       4.06035223      37.07389427        2
Si       3.83958982       2.72161377      35.12609905        2
Si       1.91979491       1.35088623      35.12609905        2
Si       1.91979491       0.01214777      37.07389427        2
Si       5.75938473       1.35088623      35.12609905        2
Si       5.75938473       0.01214777      37.07389427        2
Si       3.83958982       4.06035223      37.07389427        2
Si       7.67917964       2.72161377      35.12609905        2
Si       3.83958982       4.09604644      40.94320107        1
Si      -0.00000000       2.72293678      39.03442126        1
Si       5.75938473       1.34956322      39.03442126        1
Si       5.75938473      -0.02354644      40.94320107        1
Si       1.91979491       1.34956322      39.03442126        1
Si       1.91979491      -0.02354644      40.94320107        1
Si       7.67917964       4.09604644      40.94320107        1
Si       3.83958982       2.72293678      39.03442126        1
64
Lattice="7.679179643685906 0.0 0.0 3.8395898218429525 6.650364651656329 0.0 0.0 0.0 46.72883672232258" Properties=species:S:1:pos:R:3:tags:I:1 from_key=f0859e09177bd4eebd34b4e6c51aac882eb85fc3193e9580d0789024587486e5 energy=-339.2193952491686 label_model=mpa-0 miller=111 config_type=slab-relaxed pbc="T T F"
Si       3.83958982       6.65036465      12.66598519        8
Si       3.83958982       2.21678822      11.85852503        8
Si       1.91979491       3.32518233      12.66598519        8
Si       5.75938473       5.54197054      11.85852503        8
Si       7.67917964       6.65036465      12.66598519        8
Si       7.67917964       2.21678822      11.85852503        8
Si       5.75938473       3.32518233      12.66598519        8
Si       9.59897455       5.54197054      11.85852503        8
Si       7.67917964       4.43357643      15.84621740        7
Si       3.83958982       6.65036465      15.04193844        7
Si       5.75938473       1.10839411      15.84621740        7
Si       1.91979491       3.32518233      15.04193844        7
Si       3.83958982       4.43357643      15.84621740        7
Si       7.67917964       6.65036465      15.04193844        7
Si       1.91979491       1.10839411      15.84621740        7
Si       5.75938473       3.32518233      15.04193844        7
Si       3.83958982       2.21678822      19.01515282        6
Si       7.67917964       4.43357643      18.21186827        6
Si       5.75938473       5.54197054      19.01515282        6
Si       5.75938473       1.10839411      18.21186827        6
Si       7.67917964       2.21678822      19.01515282        6
Si       3.83958982       4.43357643      18.21186827        6
Si       9.59897455       5.54197054      19.01515282        6
Si       1.91979491       1.10839411      18.21186827        6
Si       3.83958982       6.65036465      22.18276672        5
Si       3.83958982       2.21678822      21.38231321        5
Si       1.91979491       3.32518233      22.18276672        5
Si       5.75938473       5.54197054      21.38231321        5
Si       7.67917964       6.65036465      22.18276672        5
Si       7.67917964       2.21678822      21.38231321        5
Si       5.75938473       3.32518233      22.18276672        5
Si       9.59897455       5.54197054      21.38231321        5
Si       7.67917964       4.43357643      25.34652352        4
Si       3.83958982       6.65036465      24.54607000        4
Si       5.75938473       1.10839411      25.34652352        4
Si       1.91979491       3.32518233      24.54607000        4
Si       3.83958982       4.43357643      25.34652352        4
Si       7.67917964       6.65036465      24.54607000        4
Si       1.91979491       1.10839411      25.34652352        4
Si       5.75938473       3.32518233      24.54607000        4
Si       3.83958982       2.21678822      28.51696845        3
Si       7.67917964       4.43357643      27.71368390        3
Si       5.75938473       5.54197054      28.51696845        3
Si       5.75938473       1.10839411      27.71368390        3
Si       7.67917964       2.21678822      28.51696845        3
Si       3.83958982       4.43357643      27.71368390        3
Si       9.59897455       5.54197054      28.51696845        3
Si       1.91979491       1.10839411      27.71368390        3
Si       3.83958982       6.65036465      31.68689828        2
Si       3.83958982       2.21678822      30.88261932        2
Si       1.91979491       3.32518233      31.68689828        2
Si       5.75938473       5.54197054      30.88261932        2
Si       7.67917964       6.65036465      31.68689828        2
Si       7.67917964       2.21678822      30.88261932        2
Si       5.75938473       3.32518233      31.68689828        2
Si       9.59897455       5.54197054      30.88261932        2
Si       7.67917964       4.43357643      34.87031170        1
Si       3.83958982       6.65036465      34.06285153        1
Si       5.75938473       1.10839411      34.87031170        1
Si       1.91979491       3.32518233      34.06285153        1
Si       3.83958982       4.43357643      34.87031170        1
Si       7.67917964       6.65036465      34.06285153        1
Si       1.91979491       1.10839411      34.87031170        1
Si       5.75938473       3.32518233      34.06285153        1
80
Lattice="5.43 0.0 0.0 0.0 5.43 0.0 0.0 0.0 64.9425" Properties=species:S:1:pos:R:3:tags:I:1 from_key=fdda711d758e9aa5f9e5307dcb28970717a7a0b07a928e9b52b09fc408af25ac energy=-425.96340593285447 label_model=mpa-0 miller=100 config_type=slab-relaxed pbc="T T F"
Si       1.35750000       1.35750000       6.99978797       10
Si       2.71500000       2.71500000       8.36966473       10
Si       4.07250000       4.07250000       6.99978797       10
Si       0.00000000      -0.00000000       8.36966473       10
Si       1.35750000       4.07250000       9.75593579       10
Si       2.71500000       0.00000000       5.57928197       10
Si       4.07250000       1.35750000       9.75593579       10
Si      -0.00000000       2.71500000       5.57928197       10
Si       1.35750000       1.35750000      12.51292669        9
Si       2.71500000       2.71500000      13.88908240        9
Si       4.07250000       4.07250000      12.51292669        9
Si       0.00000000      -0.00000000      13.88908240        9
Si       1.35750000       4.07250000      15.26607999        9
Si       2.71500000       0.00000000      11.13804246        9
Si       4.07250000       1.35750000      15.26607999        9
Si      -0.00000000       2.71500000      11.13804246        9
Si       1.35750000       1.35750000      18.01925794        8
Si       2.71500000       2.71500000      19.39473886        8
Si       4.07250000       4.07250000      18.01925794        8
Si       0.00000000      -0.00000000      19.39473886        8
Si       1.35750000       4.07250000      20.77211367        8
Si       2.71500000       0.00000000      16.64251566        8
Si       4.07250000       1.35750000      20.77211367        8
Si      -0.00000000       2.71500000      16.64251566        8
Si       1.35750000       1.35750000      23.52533947        7
Si       2.71500000       2.71500000      24.90027305        7
Si       4.07250000       4.07250000      23.52533947        7
Si      -0.00000000      -0.00000000      24.90027305        7
Si       1.35750000       4.07250000      26.27716921        7
Si       2.71500000      -0.00000000      22.15005704        7
Si       4.07250000       1.35750000      26.27716921        7
Si      -0.00000000       2.71500000      22.15005704        7
Si       1.35750000       1.35750000      29.03381363        6
Si       2.71500000       2.71500000      30.41019282        6
Si       4.07250000       4.07250000      29.03381363        6
Si       0.00000000      -0.00000000      30.41019282        6
Si       1.35750000       4.07250000      31.78452543        6
Si       2.71500000       0.00000000      27.65562341        6
Si       4.07250000       1.35750000      31.78452543        6
Si       0.00000000       2.71500000      27.65562341        6
Si       1.35750000       1.35750000      34.53230718        5
Si       2.71500000       2.71500000      35.90868637        5
Si       4.07250000       4.07250000      34.53230718        5
Si      -0.00000000      -0.00000000      35.90868637        5
Si       1.35750000       4.07250000      37.28687659        5
Si       2.71500000       0.00000000      33.15797457        5
Si       4.07250000       1.35750000      37.28687659        5
Si       0.00000000       2.71500000      33.15797457        5
Si       1.35750000       1.35750000      40.04222695        4
Si       2.71500000       2.71500000      41.41716053        4
Si       4.07250000       4.07250000      40.04222695        4
Si      -0.00000000       0.00000000      41.41716053        4
Si       1.35750000       4.07250000      42.79244296        4
Si       2.71500000      -0.00000000      38.66533079        4
Si       4.07250000       1.35750000      42.79244296        4
Si       0.00000000       2.71500000      38.66533079        4
Si       1.35750000       1.35750000      45.54776114        3
Si       2.71500000       2.71500000      46.92324206        3
Si       4.07250000       4.07250000      45.54776114        3
Si       0.00000000       0.00000000      46.92324206        3
Si       1.35750000       4.07250000      48.29998434        3
Si       2.71500000      -0.00000000      44.17038633        3
Si       4.07250000       1.35750000      48.29998434        3
Si       0.00000000       2.71500000      44.17038633        3
Si       1.35750000       1.35750000      51.05341760        2
Si       2.71500000       2.71500000      52.42957331        2
Si       4.07250000       4.07250000      51.05341760        2
Si       0.00000000       0.00000000      52.42957331        2
Si       1.35750000       4.07250000      53.80445754        2
Si       2.71500000      -0.00000000      49.67642001        2
Si       4.07250000       1.35750000      53.80445754        2
Si       0.00000000       2.71500000      49.67642001        2
Si       1.35750000       1.35750000      56.57283527        1
Si       2.71500000       2.71500000      57.94271203        1
Si       4.07250000       4.07250000      56.57283527        1
Si       0.00000000      -0.00000000      57.94271203        1
Si       1.35750000       4.07250000      59.36321803        1
Si       2.71500000      -0.00000000      55.18656421        1
Si       4.07250000       1.35750000      59.36321803        1
Si       0.00000000       2.71500000      55.18656421        1
80
Lattice="7.679179643685906 0.0 0.0 0.0 5.43 0.0 0.0 0.0 48.476103307508055" Properties=species:S:1:pos:R:3:tags:I:1 from_key=31bb6218bfaf84bc124cca0067d5bf7d31c553d9c28c3cb1514897a55c7f1217 energy=-426.1389668426837 label_model=mpa-0 miller=110 config_type=slab-relaxed pbc="T T F"
Si      -0.00000000       4.06859143       7.71890467       10
Si       3.83958982       2.69068965       5.81428620       10
Si       1.91979491       1.38181035       5.81428620       10
Si       1.91979491       0.00390857       7.71890467       10
Si       5.75938473       1.38181035       5.81428620       10
Si       5.75938473       0.00390857       7.71890467       10
Si       3.83958982       4.06859143       7.71890467       10
Si       0.00000000       2.69068965       5.81428620       10
Si       3.83958982       4.06602573      11.62147805        9
Si       0.00000000       2.72462723       9.67475016        9
Si       5.75938473       1.34787277       9.67475016        9
Si       5.75938473       0.00647427      11.62147805        9
Si       1.91979491       1.34787277       9.67475016        9
Si       1.91979491       0.00647427      11.62147805        9
Si       0.00000000       4.06602573      11.62147805        9
Si       3.83958982       2.72462723       9.67475016        9
Si       0.00000000       4.06889275      15.50796409        8
Si       3.83958982       2.72090843      13.56637422        8
Si       1.91979491       1.35159157      13.56637422        8
Si       1.91979491       0.00360725      15.50796409        8
Si       5.75938473       1.35159157      13.56637422        8
Si       5.75938473       0.00360725      15.50796409        8
Si       3.83958982       4.06889275      15.50796409        8
Si       0.00000000       2.72090843      13.56637422        8
Si       3.83958982       4.06723229      19.39229878        7
Si      -0.00000000       2.72020660      17.44877109        7
Si       5.75938473       1.35229340      17.44877109        7
Si       5.75938473       0.00526771      19.39229878        7
Si       1.91979491       1.35229340      17.44877109        7
Si       1.91979491       0.00526771      19.39229878        7
Si       7.67917964       4.06723229      19.39229878        7
Si       3.83958982       2.72020660      17.44877109        7
Si      -0.00000000       4.06927664      23.27024500        6
Si       3.83958982       2.71896023      21.33318147        6
Si       1.91979491       1.35353977      21.33318147        6
Si       1.91979491       0.00322336      23.27024500        6
Si       5.75938473       1.35353977      21.33318147        6
Si       5.75938473       0.00322336      23.27024500        6
Si       3.83958982       4.06927664      23.27024500        6
Si       0.00000000       2.71896023      21.33318147        6
Si       3.83958982       4.06853977      27.14292183        5
Si      -0.00000000       2.71822336      25.20585831        5
Si       5.75938473       1.35427664      25.20585831        5
Si       5.75938473       0.00396023      27.14292183        5
Si       1.91979491       1.35427664      25.20585831        5
Si       1.91979491       0.00396023      27.14292183        5
Si       0.00000000       4.06853977      27.14292183        5
Si       3.83958982       2.71822336      25.20585831        5
Si      -0.00000000       4.06729340      31.02733222        4
Si       3.83958982       2.72026771      29.08380453        4
Si       1.91979491       1.35223229      29.08380453        4
Si       1.91979491       0.00520660      31.02733222        4
Si       5.75938473       1.35223229      29.08380453        4
Si       5.75938473       0.00520660      31.02733222        4
Si       3.83958982       4.06729340      31.02733222        4
Si       0.00000000       2.72026771      29.08380453        4
Si       3.83958982       4.06659157      34.90972909        3
Si       0.00000000       2.71860725      32.96813922        3
Si       5.75938473       1.35389275      32.96813922        3
Si       5.75938473       0.00590843      34.90972909        3
Si       1.91979491       1.35389275      32.96813922        3
Si       1.91979491       0.00590843      34.90972909        3
Si       0.00000000       4.06659157      34.90972909        3
Si       3.83958982       2.71860725      32.96813922        3
Si      -0.00000000       4.06287277      38.80135314        2
Si       3.83958982       2.72147427      36.85462525        2
Si       1.91979491       1.35102573      36.85462525        2
Si       1.91979491       0.00962723      38.80135314        2
Si       5.75938473       1.35102573      36.85462525        2
Si       5.75938473       0.00962723      38.80135314        2
Si       3.83958982       4.06287277      38.80135314        2
Si      -0.00000000       2.72147427      36.85462525        2
Si       3.83958982       4.09681035      42.66181711        1
Si      -0.00000000       2.71890857      40.75719863        1
Si       5.75938473       1.35359143      40.75719863        1
Si       5.75938473      -0.02431035      42.66181711        1
Si       1.91979491       1.35359143      40.75719863        1
Si       1.91979491      -0.02431035      42.66181711        1
Si      -0.00000000       4.09681035      42.66181711        1
Si       3.83958982       2.71890857      40.75719863        1
80
Lattice="7.679179643685906 0.0 0.0 3.8395898218429525 6.650364651656329 0.0 0.0 0.0 40.99886064572193" Properties=species:S:1:pos:R:3:tags:I:1 from_key=973495f5cb8071c387d27c3afdcad250108504e9d52c1fbccc350b6135dc41d1 energy=-425.8361742445326 label_model=mpa-0 miller=111 config_type=slab-relaxed pbc="T T F"
Si      -0.00000000       0.00000000       6.63181472       10
Si       3.83958982       2.21678822       5.82320725       10
Si       1.91979491       3.32518233       6.63181472       10
Si       5.75938473       5.54197054       5.82320725       10
Si       3.83958982       0.00000000       6.63181472       10
Si       7.67917964       2.21678822       5.82320725       10
Si       5.75938473       3.32518233       6.63181472       10
Si       9.59897455       5.54197054       5.82320725       10
Si       7.67917964       4.43357643       9.81527538        9
Si       7.67917964       0.00000000       9.01399947        9
Si       5.75938473       1.10839411       9.81527538        9
Si       1.91979491       3.32518233       9.01399947        9
Si       3.83958982       4.43357643       9.81527538        9
Si       3.83958982       0.00000000       9.01399947        9
Si       1.91979491       1.10839411       9.81527538        9
Si       5.75938473       3.32518233       9.01399947        9
Si       3.83958982       2.21678822      12.98358018        8
Si       7.67917964       4.43357643      12.18075939        8
Si       5.75938473       5.54197054      12.98358018        8
Si       5.75938473       1.10839411      12.18075939        8
Si       7.67917964       2.21678822      12.98358018        8
Si       3.83958982       4.43357643      12.18075939        8
Si       9.59897455       5.54197054      12.98358018        8
Si       1.91979491       1.10839411      12.18075939        8
Si      -0.00000000       0.00000000      16.15057745        7
Si       3.83958982       2.21678822      15.34874928        7
Si       1.91979491       3.32518233      16.15057745        7
Si       5.75938473       5.54197054      15.34874928        7
Si       3.83958982      -0.00000000      16.15057745        7
Si       7.67917964       2.21678822      15.34874928        7
Si       5.75938473       3.32518233      16.15057745        7
Si       9.59897455       5.54197054      15.34874928        7
Si       7.67917964       4.43357643      19.31744946        6
Si       7.67917964       0.00000000      18.51744853        6
Si       5.75938473       1.10839411      19.31744946        6
Si       1.91979491       3.32518233      18.51744853        6
Si       3.83958982       4.43357643      19.31744946        6
Si       3.83958982       0.00000000      18.51744853        6
Si       1.91979491       1.10839411      19.31744946        6
Si       5.75938473       3.32518233      18.51744853        6
Si       3.83958982       2.21678822      22.48141212        5
Si       7.67917964       4.43357643      21.68141118        5
Si       5.75938473       5.54197054      22.48141212        5
Si       5.75938473       1.10839411      21.68141118        5
Si       7.67917964       2.21678822      22.48141212        5
Si       3.83958982       4.43357643      21.68141118        5
Si       9.59897455       5.54197054      22.48141212        5
Si       1.91979491       1.10839411      21.68141118        5
Si       0.00000000       0.00000000      25.65011136        4
Si       3.83958982       2.21678822      24.84828320        4
Si       1.91979491       3.32518233      25.65011136        4
Si       5.75938473       5.54197054      24.84828320        4
Si       3.83958982       0.00000000      25.65011136        4
Si       7.67917964       2.21678822      24.84828320        4
Si       5.75938473       3.32518233      25.65011136        4
Si       9.59897455       5.54197054      24.84828320        4
Si       7.67917964       4.43357643      28.81810126        3
Si       7.67917964       0.00000000      28.01528046        3
Si       5.75938473       1.10839411      28.81810126        3
Si       1.91979491       3.32518233      28.01528046        3
Si       3.83958982       4.43357643      28.81810126        3
Si       3.83958982       0.00000000      28.01528046        3
Si       1.91979491       1.10839411      28.81810126        3
Si       5.75938473       3.32518233      28.01528046        3
Si       3.83958982       2.21678822      31.98486118        2
Si       7.67917964       4.43357643      31.18358527        2
Si       5.75938473       5.54197054      31.98486118        2
Si       5.75938473       1.10839411      31.18358527        2
Si       7.67917964       2.21678822      31.98486118        2
Si       3.83958982       4.43357643      31.18358527        2
Si       9.59897455       5.54197054      31.98486118        2
Si       1.91979491       1.10839411      31.18358527        2
Si       0.00000000       0.00000000      35.17565340        1
Si       3.83958982       2.21678822      34.36704592        1
Si       1.91979491       3.32518233      35.17565340        1
Si       5.75938473       5.54197054      34.36704592        1
Si       3.83958982       0.00000000      35.17565340        1
Si       7.67917964       2.21678822      34.36704592        1
Si       5.75938473       3.32518233      35.17565340        1
Si       9.59897455       5.54197054      34.36704592        1
80
Lattice="5.43 0.0 0.0 0.0 5.43 0.0 0.0 0.0 68.9425" Properties=species:S:1:pos:R:3:tags:I:1 from_key=5ce35ccbf57c151ae516498a8cfa00f2fda1af67da9ea416e74720400de737e8 energy=-425.9634059328543 label_model=mpa-0 miller=100 config_type=slab-relaxed pbc="T T F"
Si       1.35750000       1.35750000       8.99978797       10
Si       2.71500000       2.71500000      10.36966473       10
Si       4.07250000       4.07250000       8.99978797       10
Si       0.00000000      -0.00000000      10.36966473       10
Si       1.35750000       4.07250000      11.75593579       10
Si       2.71500000       0.00000000       7.57928197       10
Si       4.07250000       1.35750000      11.75593579       10
Si      -0.00000000       2.71500000       7.57928197       10
Si       1.35750000       1.35750000      14.51292669        9
Si       2.71500000       2.71500000      15.88908240        9
Si       4.07250000       4.07250000      14.51292669        9
Si       0.00000000      -0.00000000      15.88908240        9
Si       1.35750000       4.07250000      17.26607999        9
Si       2.71500000       0.00000000      13.13804246        9
Si       4.07250000       1.35750000      17.26607999        9
Si      -0.00000000       2.71500000      13.13804246        9
Si       1.35750000       1.35750000      20.01925794        8
Si       2.71500000       2.71500000      21.39473886        8
Si       4.07250000       4.07250000      20.01925794        8
Si       0.00000000      -0.00000000      21.39473886        8
Si       1.35750000       4.07250000      22.77211367        8
Si       2.71500000       0.00000000      18.64251566        8
Si       4.07250000       1.35750000      22.77211367        8
Si      -0.00000000       2.71500000      18.64251566        8
Si       1.35750000       1.35750000      25.52533947        7
Si       2.71500000       2.71500000      26.90027305        7
Si       4.07250000       4.07250000      25.52533947        7
Si      -0.00000000       0.00000000      26.90027305        7
Si       1.35750000       4.07250000      28.27716921        7
Si       2.71500000       0.00000000      24.15005704        7
Si       4.07250000       1.35750000      28.27716921        7
Si      -0.00000000       2.71500000      24.15005704        7
Si       1.35750000       1.35750000      31.03381363        6
Si       2.71500000       2.71500000      32.41019282        6
Si       4.07250000       4.07250000      31.03381363        6
Si      -0.00000000      -0.00000000      32.41019282        6
Si       1.35750000       4.07250000      33.78452543        6
Si       2.71500000       0.00000000      29.65562341        6
Si       4.07250000       1.35750000      33.78452543        6
Si       0.00000000       2.71500000      29.65562341        6
Si       1.35750000       1.35750000      36.53230718        5
Si       2.71500000       2.71500000      37.90868637        5
Si       4.07250000       4.07250000      36.53230718        5
Si      -0.00000000      -0.00000000      37.90868637        5
Si       1.35750000       4.07250000      39.28687659        5
Si       2.71500000      -0.00000000      35.15797457        5
Si       4.07250000       1.35750000      39.28687659        5
Si       0.00000000       2.71500000      35.15797457        5
Si       1.35750000       1.35750000      42.04222695        4
Si       2.71500000       2.71500000      43.41716053        4
Si       4.07250000       4.07250000      42.04222695        4
Si       0.00000000       0.00000000      43.41716053        4
Si       1.35750000       4.07250000      44.79244296        4
Si       2.71500000      -0.00000000      40.66533079        4
Si       4.07250000       1.35750000      44.79244296        4
Si      -0.00000000       2.71500000      40.66533079        4
Si       1.35750000       1.35750000      47.54776114        3
Si       2.71500000       2.71500000      48.92324206        3
Si       4.07250000       4.07250000      47.54776114        3
Si      -0.00000000       0.00000000      48.92324206        3
Si       1.35750000       4.07250000      50.29998434        3
Si       2.71500000      -0.00000000      46.17038633        3
Si       4.07250000       1.35750000      50.29998434        3
Si       0.00000000       2.71500000      46.17038633        3
Si       1.35750000       1.35750000      53.05341760        2
Si       2.71500000       2.71500000      54.42957331        2
Si       4.07250000       4.07250000      53.05341760        2
Si       0.00000000      -0.00000000      54.42957331        2
Si       1.35750000       4.07250000      55.80445754        2
Si       2.71500000      -0.00000000      51.67642001        2
Si       4.07250000       1.35750000      55.80445754        2
Si       0.00000000       2.71500000      51.67642001        2
Si       1.35750000       1.35750000      58.57283527        1
Si       2.71500000       2.71500000      59.94271203        1
Si       4.07250000       4.07250000      58.57283527        1
Si       0.00000000      -0.00000000      59.94271203        1
Si       1.35750000       4.07250000      61.36321803        1
Si       2.71500000       0.00000000      57.18656421        1
Si       4.07250000       1.35750000      61.36321803        1
Si      -0.00000000       2.71500000      57.18656421        1
80
Lattice="7.679179643685906 0.0 0.0 0.0 5.43 0.0 0.0 0.0 52.476103307508055" Properties=species:S:1:pos:R:3:tags:I:1 from_key=5c36503efa4ed630efead19614ac15c6b5e7df4e689db2dbc6f4831d5e139a81 energy=-426.13896684268366 label_model=mpa-0 miller=110 config_type=slab-relaxed pbc="T T F"
Si      -0.00000000       4.06859143       9.71890467       10
Si       3.83958982       2.69068965       7.81428620       10
Si       1.91979491       1.38181035       7.81428620       10
Si       1.91979491       0.00390857       9.71890467       10
Si       5.75938473       1.38181035       7.81428620       10
Si       5.75938473       0.00390857       9.71890467       10
Si       3.83958982       4.06859143       9.71890467       10
Si      -0.00000000       2.69068965       7.81428620       10
Si       3.83958982       4.06602573      13.62147805        9
Si       0.00000000       2.72462723      11.67475016        9
Si       5.75938473       1.34787277      11.67475016        9
Si       5.75938473       0.00647427      13.62147805        9
Si       1.91979491       1.34787277      11.67475016        9
Si       1.91979491       0.00647427      13.62147805        9
Si      -0.00000000       4.06602573      13.62147805        9
Si       3.83958982       2.72462723      11.67475016        9
Si       0.00000000       4.06889275      17.50796409        8
Si       3.83958982       2.72090843      15.56637422        8
Si       1.91979491       1.35159157      15.56637422        8
Si       1.91979491       0.00360725      17.50796409        8
Si       5.75938473       1.35159157      15.56637422        8
Si       5.75938473       0.00360725      17.50796409        8
Si       3.83958982       4.06889275      17.50796409        8
Si       0.00000000       2.72090843      15.56637422        8
Si       3.83958982       4.06723229      21.39229878        7
Si      -0.00000000       2.72020660      19.44877109        7
Si       5.75938473       1.35229340      19.44877109        7
Si       5.75938473       0.00526771      21.39229878        7
Si       1.91979491       1.35229340      19.44877109        7
Si       1.91979491       0.00526771      21.39229878        7
Si       7.67917964       4.06723229      21.39229878        7
Si       3.83958982       2.72020660      19.44877109        7
Si      -0.00000000       4.06927664      25.27024500        6
Si       3.83958982       2.71896023      23.33318147        6
Si       1.91979491       1.35353977      23.33318147        6
Si       1.91979491       0.00322336      25.27024500        6
Si       5.75938473       1.35353977      23.33318147        6
Si       5.75938473       0.00322336      25.27024500        6
Si       3.83958982       4.06927664      25.27024500        6
Si       0.00000000       2.71896023      23.33318147        6
Si       3.83958982       4.06853977      29.14292183        5
Si      -0.00000000       2.71822336      27.20585831        5
Si       5.75938473       1.35427664      27.20585831        5
Si       5.75938473       0.00396023      29.14292183        5
Si       1.91979491       1.35427664      27.20585831        5
Si       1.91979491       0.00396023      29.14292183        5
Si       0.00000000       4.06853977      29.14292183        5
Si       3.83958982       2.71822336      27.20585831        5
Si       0.00000000       4.06729340      33.02733222        4
Si       3.83958982       2.72026771      31.08380453        4
Si       1.91979491       1.35223229      31.08380453        4
Si       1.91979491       0.00520660      33.02733222        4
Si       5.75938473       1.35223229      31.08380453        4
Si       5.75938473       0.00520660      33.02733222        4
Si       3.83958982       4.06729340      33.02733222        4
Si       0.00000000       2.72026771      31.08380453        4
Si       3.83958982       4.06659157      36.90972909        3
Si      -0.00000000       2.71860725      34.96813922        3
Si       5.75938473       1.35389275      34.96813922        3
Si       5.75938473       0.00590843      36.90972909        3
Si       1.91979491       1.35389275      34.96813922        3
Si       1.91979491       0.00590843      36.90972909        3
Si       0.00000000       4.06659157      36.90972909        3
Si       3.83958982       2.71860725      34.96813922        3
Si       0.00000000       4.06287277      40.80135314        2
Si       3.83958982       2.72147427      38.85462525        2
Si       1.91979491       1.35102573      38.85462525        2
Si       1.91979491       0.00962723      40.80135314        2
Si       5.75938473       1.35102573      38.85462525        2
Si       5.75938473       0.00962723      40.80135314        2
Si       3.83958982       4.06287277      40.80135314        2
Si       0.00000000       2.72147427      38.85462525        2
Si       3.83958982       4.09681035      44.66181711        1
Si       0.00000000       2.71890857      42.75719863        1
Si       5.75938473       1.35359143      42.75719863        1
Si       5.75938473      -0.02431035      44.66181711        1
Si       1.91979491       1.35359143      42.75719863        1
Si       1.91979491      -0.02431035      44.66181711        1
Si      -0.00000000       4.09681035      44.66181711        1
Si       3.83958982       2.71890857      42.75719863        1
80
Lattice="7.679179643685906 0.0 0.0 3.8395898218429525 6.650364651656329 0.0 0.0 0.0 44.99886064572193" Properties=species:S:1:pos:R:3:tags:I:1 from_key=1ba60c9fd4fac3b31211159b20e699b81ee40b85ab7216ae6b67e1f1429705a9 energy=-425.83617424453263 label_model=mpa-0 miller=111 config_type=slab-relaxed pbc="T T F"
Si       0.00000000       0.00000000       8.63181472       10
Si       3.83958982       2.21678822       7.82320725       10
Si       1.91979491       3.32518233       8.63181472       10
Si       5.75938473       5.54197054       7.82320725       10
Si       3.83958982      -0.00000000       8.63181472       10
Si       7.67917964       2.21678822       7.82320725       10
Si       5.75938473       3.32518233       8.63181472       10
Si       9.59897455       5.54197054       7.82320725       10
Si       7.67917964       4.43357643      11.81527538        9
Si       7.67917964       0.00000000      11.01399947        9
Si       5.75938473       1.10839411      11.81527538        9
Si       1.91979491       3.32518233      11.01399947        9
Si       3.83958982       4.43357643      11.81527538        9
Si       3.83958982      -0.00000000      11.01399947        9
Si       1.91979491       1.10839411      11.81527538        9
Si       5.75938473       3.32518233      11.01399947        9
Si       3.83958982       2.21678822      14.98358018        8
Si       7.67917964       4.43357643      14.18075939        8
Si       5.75938473       5.54197054      14.98358018        8
Si       5.75938473       1.10839411      14.18075939        8
Si       7.67917964       2.21678822      14.98358018        8
Si       3.83958982       4.43357643      14.18075939        8
Si       9.59897455       5.54197054      14.98358018        8
Si       1.91979491       1.10839411      14.18075939        8
Si       0.00000000       0.00000000      18.15057745        7
Si       3.83958982       2.21678822      17.34874928        7
Si       1.91979491       3.32518233      18.15057745        7
Si       5.75938473       5.54197054      17.34874928        7
Si       3.83958982      -0.00000000      18.15057745        7
Si       7.67917964       2.21678822      17.34874928        7
Si       5.75938473       3.32518233      18.15057745        7
Si       9.59897455       5.54197054      17.34874928        7
Si       7.67917964       4.43357643      21.31744946        6
Si       7.67917964       0.00000000      20.51744853        6
Si       5.75938473       1.10839411      21.31744946        6
Si       1.91979491       3.32518233      20.51744853        6
Si       3.83958982       4.43357643      21.31744946        6
Si       3.83958982       0.00000000      20.51744853        6
Si       1.91979491       1.10839411      21.31744946        6
Si       5.75938473       3.32518233      20.51744853        6
Si       3.83958982       2.21678822      24.48141212        5
Si       7.67917964       4.43357643      23.68141118        5
Si       5.75938473       5.54197054      24.48141212        5
Si       5.75938473       1.10839411      23.68141118        5
Si       7.67917964       2.21678822      24.48141212        5
Si       3.83958982       4.43357643      23.68141118        5
Si       9.59897455       5.54197054      24.48141212        5
Si       1.91979491       1.10839411      23.68141118        5
Si       0.00000000      -0.00000000      27.65011136        4
Si       3.83958982       2.21678822      26.84828320        4
Si       1.91979491       3.32518233      27.65011136        4
Si       5.75938473       5.54197054      26.84828320        4
Si       3.83958982       0.00000000      27.65011136        4
Si       7.67917964       2.21678822      26.84828320        4
Si       5.75938473       3.32518233      27.65011136        4
Si       9.59897455       5.54197054      26.84828320        4
Si       7.67917964       4.43357643      30.81810126        3
Si       7.67917964       0.00000000      30.01528046        3
Si       5.75938473       1.10839411      30.81810126        3
Si       1.91979491       3.32518233      30.01528046        3
Si       3.83958982       4.43357643      30.81810126        3
Si       3.83958982       0.00000000      30.01528046        3
Si       1.91979491       1.10839411      30.81810126        3
Si       5.75938473       3.32518233      30.01528046        3
Si       3.83958982       2.21678822      33.98486118        2
Si       7.67917964       4.43357643      33.18358527        2
Si       5.75938473       5.54197054      33.98486118        2
Si       5.75938473       1.10839411      33.18358527        2
Si       7.67917964       2.21678822      33.98486118        2
Si       3.83958982       4.43357643      33.18358527        2
Si       9.59897455       5.54197054      33.98486118        2
Si       1.91979491       1.10839411      33.18358527        2
Si       0.00000000       0.00000000      37.17565340        1
Si       3.83958982       2.21678822      36.36704592        1
Si       1.91979491       3.32518233      37.17565340        1
Si       5.75938473       5.54197054      36.36704592        1
Si       3.83958982       0.00000000      37.17565340        1
Si       7.67917964       2.21678822      36.36704592        1
Si       5.75938473       3.32518233      37.17565340        1
Si       9.59897455       5.54197054      36.36704592        1
80
Lattice="5.43 0.0 0.0 0.0 5.43 0.0 0.0 0.0 72.9425" Properties=species:S:1:pos:R:3:tags:I:1 from_key=7dd4a55546e2b35722acb9e04a6a6224bc99dc9877acd2ec900578181e518adc energy=-425.9634059328542 label_model=mpa-0 miller=100 config_type=slab-relaxed pbc="T T F"
Si       1.35750000       1.35750000      10.99978797       10
Si       2.71500000       2.71500000      12.36966473       10
Si       4.07250000       4.07250000      10.99978797       10
Si      -0.00000000       0.00000000      12.36966473       10
Si       1.35750000       4.07250000      13.75593579       10
Si       2.71500000      -0.00000000       9.57928197       10
Si       4.07250000       1.35750000      13.75593579       10
Si       0.00000000       2.71500000       9.57928197       10
Si       1.35750000       1.35750000      16.51292669        9
Si       2.71500000       2.71500000      17.88908240        9
Si       4.07250000       4.07250000      16.51292669        9
Si      -0.00000000       0.00000000      17.88908240        9
Si       1.35750000       4.07250000      19.26607999        9
Si       2.71500000      -0.00000000      15.13804246        9
Si       4.07250000       1.35750000      19.26607999        9
Si       0.00000000       2.71500000      15.13804246        9
Si       1.35750000       1.35750000      22.01925794        8
Si       2.71500000       2.71500000      23.39473886        8
Si       4.07250000       4.07250000      22.01925794        8
Si       0.00000000      -0.00000000      23.39473886        8
Si       1.35750000       4.07250000      24.77211367        8
Si       2.71500000      -0.00000000      20.64251566        8
Si       4.07250000       1.35750000      24.77211367        8
Si       0.00000000       2.71500000      20.64251566        8
Si       1.35750000       1.35750000      27.52533947        7
Si       2.71500000       2.71500000      28.90027305        7
Si       4.07250000       4.07250000      27.52533947        7
Si      -0.00000000       0.00000000      28.90027305        7
Si       1.35750000       4.07250000      30.27716921        7
Si       2.71500000       0.00000000      26.15005704        7
Si       4.07250000       1.35750000      30.27716921        7
Si      -0.00000000       2.71500000      26.15005704        7
Si       1.35750000       1.35750000      33.03381363        6
Si       2.71500000       2.71500000      34.41019282        6
Si       4.07250000       4.07250000      33.03381363        6
Si       0.00000000       0.00000000      34.41019282        6
Si       1.35750000       4.07250000      35.78452543        6
Si       2.71500000       0.00000000      31.65562341        6
Si       4.07250000       1.35750000      35.78452543        6
Si      -0.00000000       2.71500000      31.65562341        6
Si       1.35750000       1.35750000      38.53230718        5
Si       2.71500000       2.71500000      39.90868637        5
Si       4.07250000       4.07250000      38.53230718        5
Si      -0.00000000      -0.00000000      39.90868637        5
Si       1.35750000       4.07250000      41.28687659        5
Si       2.71500000      -0.00000000      37.15797457        5
Si       4.07250000       1.35750000      41.28687659        5
Si      -0.00000000       2.71500000      37.15797457        5
Si       1.35750000       1.35750000      44.04222695        4
Si       2.71500000       2.71500000      45.41716053        4
Si       4.07250000       4.07250000      44.04222695        4
Si      -0.00000000      -0.00000000      45.41716053        4
Si       1.35750000       4.07250000      46.79244296        4
Si       2.71500000       0.00000000      42.66533079        4
Si       4.07250000       1.35750000      46.79244296        4
Si      -0.00000000       2.71500000      42.66533079        4
Si       1.35750000       1.35750000      49.54776114        3
Si       2.71500000       2.71500000      50.92324206        3
Si       4.07250000       4.07250000      49.54776114        3
Si      -0.00000000       0.00000000      50.92324206        3
Si       1.35750000       4.07250000      52.29998434        3
Si       2.71500000      -0.00000000      48.17038633        3
Si       4.07250000       1.35750000      52.29998434        3
Si      -0.00000000       2.71500000      48.17038633        3
Si       1.35750000       1.35750000      55.05341760        2
Si       2.71500000       2.71500000      56.42957331        2
Si       4.07250000       4.07250000      55.05341760        2
Si      -0.00000000      -0.00000000      56.42957331        2
Si       1.35750000       4.07250000      57.80445754        2
Si       2.71500000      -0.00000000      53.67642001        2
Si       4.07250000       1.35750000      57.80445754        2
Si      -0.00000000       2.71500000      53.67642001        2
Si       1.35750000       1.35750000      60.57283527        1
Si       2.71500000       2.71500000      61.94271203        1
Si       4.07250000       4.07250000      60.57283527        1
Si      -0.00000000      -0.00000000      61.94271203        1
Si       1.35750000       4.07250000      63.36321803        1
Si       2.71500000      -0.00000000      59.18656421        1
Si       4.07250000       1.35750000      63.36321803        1
Si      -0.00000000       2.71500000      59.18656421        1
80
Lattice="7.679179643685906 0.0 0.0 0.0 5.43 0.0 0.0 0.0 56.476103307508055" Properties=species:S:1:pos:R:3:tags:I:1 from_key=31e21855312ce5ec8064842eb446cb1346a94013e48206b802680d1b0c972dc1 energy=-426.1389668426837 label_model=mpa-0 miller=110 config_type=slab-relaxed pbc="T T F"
Si      -0.00000000       4.06859143      11.71890467       10
Si       3.83958982       2.69068965       9.81428620       10
Si       1.91979491       1.38181035       9.81428620       10
Si       1.91979491       0.00390857      11.71890467       10
Si       5.75938473       1.38181035       9.81428620       10
Si       5.75938473       0.00390857      11.71890467       10
Si       3.83958982       4.06859143      11.71890467       10
Si       0.00000000       2.69068965       9.81428620       10
Si       3.83958982       4.06602573      15.62147805        9
Si       0.00000000       2.72462723      13.67475016        9
Si       5.75938473       1.34787277      13.67475016        9
Si       5.75938473       0.00647427      15.62147805        9
Si       1.91979491       1.34787277      13.67475016        9
Si       1.91979491       0.00647427      15.62147805        9
Si       0.00000000       4.06602573      15.62147805        9
Si       3.83958982       2.72462723      13.67475016        9
Si       0.00000000       4.06889275      19.50796409        8
Si       3.83958982       2.72090843      17.56637422        8
Si       1.91979491       1.35159157      17.56637422        8
Si       1.91979491       0.00360725      19.50796409        8
Si       5.75938473       1.35159157      17.56637422        8
Si       5.75938473       0.00360725      19.50796409        8
Si       3.83958982       4.06889275      19.50796409        8
Si       0.00000000       2.72090843      17.56637422        8
Si       3.83958982       4.06723229      23.39229878        7
Si       0.00000000       2.72020660      21.44877109        7
Si       5.75938473       1.35229340      21.44877109        7
Si       5.75938473       0.00526771      23.39229878        7
Si       1.91979491       1.35229340      21.44877109        7
Si       1.91979491       0.00526771      23.39229878        7
Si       7.67917964       4.06723229      23.39229878        7
Si       3.83958982       2.72020660      21.44877109        7
Si      -0.00000000       4.06927664      27.27024500        6
Si       3.83958982       2.71896023      25.33318147        6
Si       1.91979491       1.35353977      25.33318147        6
Si       1.91979491       0.00322336      27.27024500        6
Si       5.75938473       1.35353977      25.33318147        6
Si       5.75938473       0.00322336      27.27024500        6
Si       3.83958982       4.06927664      27.27024500        6
Si      -0.00000000       2.71896023      25.33318147        6
Si       3.83958982       4.06853977      31.14292183        5
Si       0.00000000       2.71822336      29.20585831        5
Si       5.75938473       1.35427664      29.20585831        5
Si       5.75938473       0.00396023      31.14292183        5
Si       1.91979491       1.35427664      29.20585831        5
Si       1.91979491       0.00396023      31.14292183        5
Si       0.00000000       4.06853977      31.14292183        5
Si       3.83958982       2.71822336      29.20585831        5
Si       0.00000000       4.06729340      35.02733222        4
Si       3.83958982       2.72026771      33.08380453        4
Si       1.91979491       1.35223229      33.08380453        4
Si       1.91979491       0.00520660      35.02733222        4
Si       5.75938473       1.35223229      33.08380453        4
Si       5.75938473       0.00520660      35.02733222        4
Si       3.83958982       4.06729340      35.02733222        4
Si       0.00000000       2.72026771      33.08380453        4
Si       3.83958982       4.06659157      38.90972909        3
Si       0.00000000       2.71860725      36.96813922        3
Si       5.75938473       1.35389275      36.96813922        3
Si       5.75938473       0.00590843      38.90972909        3
Si       1.91979491       1.35389275      36.96813922        3
Si       1.91979491       0.00590843      38.90972909        3
Si       0.00000000       4.06659157      38.90972909        3
Si       3.83958982       2.71860725      36.96813922        3
Si       0.00000000       4.06287277      42.80135314        2
Si       3.83958982       2.72147427      40.85462525        2
Si       1.91979491       1.35102573      40.85462525        2
Si       1.91979491       0.00962723      42.80135314        2
Si       5.75938473       1.35102573      40.85462525        2
Si       5.75938473       0.00962723      42.80135314        2
Si       3.83958982       4.06287277      42.80135314        2
Si       0.00000000       2.72147427      40.85462525        2
Si       3.83958982       4.09681035      46.66181711        1
Si       0.00000000       2.71890857      44.75719863        1
Si       5.75938473       1.35359143      44.75719863        1
Si       5.75938473      -0.02431035      46.66181711        1
Si       1.91979491       1.35359143      44.75719863        1
Si       1.91979491      -0.02431035      46.66181711        1
Si       0.00000000       4.09681035      46.66181711        1
Si       3.83958982       2.71890857      44.75719863        1
80
Lattice="7.679179643685906 0.0 0.0 3.8395898218429525 6.650364651656329 0.0 0.0 0.0 48.99886064572193" Properties=species:S:1:pos:R:3:tags:I:1 from_key=c2eaa314571f4934cb88b35562613625a233c8d5c58010e3117d0cac6fbfcc6d energy=-425.8361742445327 label_model=mpa-0 miller=111 config_type=slab-relaxed pbc="T T F"
Si      -0.00000000       0.00000000      10.63181472       10
Si       3.83958982       2.21678822       9.82320725       10
Si       1.91979491       3.32518233      10.63181472       10
Si       5.75938473       5.54197054       9.82320725       10
Si       3.83958982       0.00000000      10.63181472       10
Si       7.67917964       2.21678822       9.82320725       10
Si       5.75938473       3.32518233      10.63181472       10
Si       9.59897455       5.54197054       9.82320725       10
Si       7.67917964       4.43357643      13.81527538        9
Si       7.67917964       0.00000000      13.01399947        9
Si       5.75938473       1.10839411      13.81527538        9
Si       1.91979491       3.32518233      13.01399947        9
Si       3.83958982       4.43357643      13.81527538        9
Si       3.83958982      -0.00000000      13.01399947        9
Si       1.91979491       1.10839411      13.81527538        9
Si       5.75938473       3.32518233      13.01399947        9
Si       3.83958982       2.21678822      16.98358018        8
Si       7.67917964       4.43357643      16.18075939        8
Si       5.75938473       5.54197054      16.98358018        8
Si       5.75938473       1.10839411      16.18075939        8
Si       7.67917964       2.21678822      16.98358018        8
Si       3.83958982       4.43357643      16.18075939        8
Si       9.59897455       5.54197054      16.98358018        8
Si       1.91979491       1.10839411      16.18075939        8
Si       0.00000000       0.00000000      20.15057745        7
Si       3.83958982       2.21678822      19.34874928        7
Si       1.91979491       3.32518233      20.15057745        7
Si       5.75938473       5.54197054      19.34874928        7
Si       3.83958982       0.00000000      20.15057745        7
Si       7.67917964       2.21678822      19.34874928        7
Si       5.75938473       3.32518233      20.15057745        7
Si       9.59897455       5.54197054      19.34874928        7
Si       7.67917964       4.43357643      23.31744946        6
Si       7.67917964       0.00000000      22.51744853        6
Si       5.75938473       1.10839411      23.31744946        6
Si       1.91979491       3.32518233      22.51744853        6
Si       3.83958982       4.43357643      23.31744946        6
Si       3.83958982       0.00000000      22.51744853        6
Si       1.91979491       1.10839411      23.31744946        6
Si       5.75938473       3.32518233      22.51744853        6
Si       3.83958982       2.21678822      26.48141212        5
Si       7.67917964       4.43357643      25.68141118        5
Si       5.75938473       5.54197054      26.48141212        5
Si       5.75938473       1.10839411      25.68141118        5
Si       7.67917964       2.21678822      26.48141212        5
Si       3.83958982       4.43357643      25.68141118        5
Si       9.59897455       5.54197054      26.48141212        5
Si       1.91979491       1.10839411      25.68141118        5
Si       0.00000000      -0.00000000      29.65011136        4
Si       3.83958982       2.21678822      28.84828320        4
Si       1.91979491       3.32518233      29.65011136        4
Si       5.75938473       5.54197054      28.84828320        4
Si       3.83958982       0.00000000      29.65011136        4
Si       7.67917964       2.21678822      28.84828320        4
Si       5.75938473       3.32518233      29.65011136        4
Si       9.59897455       5.54197054      28.84828320        4
Si       7.67917964       4.43357643      32.81810126        3
Si       7.67917964       0.00000000      32.01528046        3
Si       5.75938473       1.10839411      32.81810126        3
Si       1.91979491       3.32518233      32.01528046        3
Si       3.83958982       4.43357643      32.81810126        3
Si       3.83958982       0.00000000      32.01528046        3
Si       1.91979491       1.10839411      32.81810126        3
Si       5.75938473       3.32518233      32.01528046        3
Si       3.83958982       2.21678822      35.98486118        2
Si       7.67917964       4.43357643      35.18358527        2
Si       5.75938473       5.54197054      35.98486118        2
Si       5.75938473       1.10839411      35.18358527        2
Si       7.67917964       2.21678822      35.98486118        2
Si       3.83958982       4.43357643      35.18358527        2
Si       9.59897455       5.54197054      35.98486118        2
Si       1.91979491       1.10839411      35.18358527        2
Si       0.00000000       0.00000000      39.17565340        1
Si       3.83958982       2.21678822      38.36704592        1
Si       1.91979491       3.32518233      39.17565340        1
Si       5.75938473       5.54197054      38.36704592        1
Si       3.83958982       0.00000000      39.17565340        1
Si       7.67917964       2.21678822      38.36704592        1
Si       5.75938473       3.32518233      39.17565340        1
Si       9.59897455       5.54197054      38.36704592        1
80
Lattice="5.43 0.0 0.0 0.0 5.43 0.0 0.0 0.0 76.9425" Properties=species:S:1:pos:R:3:tags:I:1 from_key=b009d6f2c054ea1bed5b32391e848a63689052b5288bceb3f793bc314f5d0172 energy=-425.9634059328542 label_model=mpa-0 miller=100 config_type=slab-relaxed pbc="T T F"
Si       1.35750000       1.35750000      12.99978797       10
Si       2.71500000       2.71500000      14.36966473       10
Si       4.07250000       4.07250000      12.99978797       10
Si       0.00000000      -0.00000000      14.36966473       10
Si       1.35750000       4.07250000      15.75593579       10
Si       2.71500000       0.00000000      11.57928197       10
Si       4.07250000       1.35750000      15.75593579       10
Si      -0.00000000       2.71500000      11.57928197       10
Si       1.35750000       1.35750000      18.51292669        9
Si       2.71500000       2.71500000      19.88908240        9
Si       4.07250000       4.07250000      18.51292669        9
Si       0.00000000      -0.00000000      19.88908240        9
Si       1.35750000       4.07250000      21.26607999        9
Si       2.71500000       0.00000000      17.13804246        9
Si       4.07250000       1.35750000      21.26607999        9
Si      -0.00000000       2.71500000      17.13804246        9
Si       1.35750000       1.35750000      24.01925794        8
Si       2.71500000       2.71500000      25.39473886        8
Si       4.07250000       4.07250000      24.01925794        8
Si       0.00000000      -0.00000000      25.39473886        8
Si       1.35750000       4.07250000      26.77211367        8
Si       2.71500000       0.00000000      22.64251566        8
Si       4.07250000       1.35750000      26.77211367        8
Si      -0.00000000       2.71500000      22.64251566        8
Si       1.35750000       1.35750000      29.52533947        7
Si       2.71500000       2.71500000      30.90027305        7
Si       4.07250000       4.07250000      29.52533947        7
Si       0.00000000      -0.00000000      30.90027305        7
Si       1.35750000       4.07250000      32.27716921        7
Si       2.71500000      -0.00000000      28.15005704        7
Si       4.07250000       1.35750000      32.27716921        7
Si      -0.00000000       2.71500000      28.15005704        7
Si       1.35750000       1.35750000      35.03381363        6
Si       2.71500000       2.71500000      36.41019282        6
Si       4.07250000       4.07250000      35.03381363        6
Si       0.00000000       0.00000000      36.41019282        6
Si       1.35750000       4.07250000      37.78452543        6
Si       2.71500000      -0.00000000      33.65562341        6
Si       4.07250000       1.35750000      37.78452543        6
Si      -0.00000000       2.71500000      33.65562341        6
Si       1.35750000       1.35750000      40.53230718        5
Si       2.71500000       2.71500000      41.90868637        5
Si       4.07250000       4.07250000      40.53230718        5
Si       0.00000000      -0.00000000      41.90868637        5
Si       1.35750000       4.07250000      43.28687659        5
Si       2.71500000      -0.00000000      39.15797457        5
Si       4.07250000       1.35750000      43.28687659        5
Si       0.00000000       2.71500000      39.15797457        5
Si       1.35750000       1.35750000      46.04222695        4
Si       2.71500000       2.71500000      47.41716053        4
Si       4.07250000       4.07250000      46.04222695        4
Si       0.00000000       0.00000000      47.41716053        4
Si       1.35750000       4.07250000      48.79244296        4
Si       2.71500000      -0.00000000      44.66533079        4
Si       4.07250000       1.35750000      48.79244296        4
Si      -0.00000000       2.71500000      44.66533079        4
Si       1.35750000       1.35750000      51.54776114        3
Si       2.71500000       2.71500000      52.92324206        3
Si       4.07250000       4.07250000      51.54776114        3
Si       0.00000000      -0.00000000      52.92324206        3
Si       1.35750000       4.07250000      54.29998434        3
Si       2.71500000      -0.00000000      50.17038633        3
Si       4.07250000       1.35750000      54.29998434        3
Si       0.00000000       2.71500000      50.17038633        3
Si       1.35750000       1.35750000      57.05341760        2
Si       2.71500000       2.71500000      58.42957331        2
Si       4.07250000       4.07250000      57.05341760        2
Si      -0.00000000      -0.00000000      58.42957331        2
Si       1.35750000       4.07250000      59.80445754        2
Si       2.71500000       0.00000000      55.67642001        2
Si       4.07250000       1.35750000      59.80445754        2
Si       0.00000000       2.71500000      55.67642001        2
Si       1.35750000       1.35750000      62.57283527        1
Si       2.71500000       2.71500000      63.94271203        1
Si       4.07250000       4.07250000      62.57283527        1
Si      -0.00000000      -0.00000000      63.94271203        1
Si       1.35750000       4.07250000      65.36321803        1
Si       2.71500000      -0.00000000      61.18656421        1
Si       4.07250000       1.35750000      65.36321803        1
Si       0.00000000       2.71500000      61.18656421        1
80
Lattice="7.679179643685906 0.0 0.0 0.0 5.43 0.0 0.0 0.0 60.476103307508055" Properties=species:S:1:pos:R:3:tags:I:1 from_key=e8f24e79694cc64079a819635d72b094357b14fba79aae1468881b6422d06bee energy=-426.1389668426836 label_model=mpa-0 miller=110 config_type=slab-relaxed pbc="T T F"
Si       0.00000000       4.06859143      13.71890467       10
Si       3.83958982       2.69068965      11.81428620       10
Si       1.91979491       1.38181035      11.81428620       10
Si       1.91979491       0.00390857      13.71890467       10
Si       5.75938473       1.38181035      11.81428620       10
Si       5.75938473       0.00390857      13.71890467       10
Si       3.83958982       4.06859143      13.71890467       10
Si       0.00000000       2.69068965      11.81428620       10
Si       3.83958982       4.06602573      17.62147805        9
Si       0.00000000       2.72462723      15.67475016        9
Si       5.75938473       1.34787277      15.67475016        9
Si       5.75938473       0.00647427      17.62147805        9
Si       1.91979491       1.34787277      15.67475016        9
Si       1.91979491       0.00647427      17.62147805        9
Si      -0.00000000       4.06602573      17.62147805        9
Si       3.83958982       2.72462723      15.67475016        9
Si      -0.00000000       4.06889275      21.50796409        8
Si       3.83958982       2.72090843      19.56637422        8
Si       1.91979491       1.35159157      19.56637422        8
Si       1.91979491       0.00360725      21.50796409        8
Si       5.75938473       1.35159157      19.56637422        8
Si       5.75938473       0.00360725      21.50796409        8
Si       3.83958982       4.06889275      21.50796409        8
Si      -0.00000000       2.72090843      19.56637422        8
Si       3.83958982       4.06723229      25.39229878        7
Si      -0.00000000       2.72020660      23.44877109        7
Si       5.75938473       1.35229340      23.44877109        7
Si       5.75938473       0.00526771      25.39229878        7
Si       1.91979491       1.35229340      23.44877109        7
Si       1.91979491       0.00526771      25.39229878        7
Si       7.67917964       4.06723229      25.39229878        7
Si       3.83958982       2.72020660      23.44877109        7
Si      -0.00000000       4.06927664      29.27024500        6
Si       3.83958982       2.71896023      27.33318147        6
Si       1.91979491       1.35353977      27.33318147        6
Si       1.91979491       0.00322336      29.27024500        6
Si       5.75938473       1.35353977      27.33318147        6
Si       5.75938473       0.00322336      29.27024500        6
Si       3.83958982       4.06927664      29.27024500        6
Si      -0.00000000       2.71896023      27.33318147        6
Si       3.83958982       4.06853977      33.14292183        5
Si       0.00000000       2.71822336      31.20585831        5
Si       5.75938473       1.35427664      31.20585831        5
Si       5.75938473       0.00396023      33.14292183        5
Si       1.91979491       1.35427664      31.20585831        5
Si       1.91979491       0.00396023      33.14292183        5
Si       0.00000000       4.06853977      33.14292183        5
Si       3.83958982       2.71822336      31.20585831        5
Si      -0.00000000       4.06729340      37.02733222        4
Si       3.83958982       2.72026771      35.08380453        4
Si       1.91979491       1.35223229      35.08380453        4
Si       1.91979491       0.00520660      37.02733222        4
Si       5.75938473       1.35223229      35.08380453        4
Si       5.75938473       0.00520660      37.02733222        4
Si       3.83958982       4.06729340      37.02733222        4
Si      -0.00000000       2.72026771      35.08380453        4
Si       3.83958982       4.06659157      40.90972909        3
Si       0.00000000       2.71860725      38.96813922        3
Si       5.75938473       1.35389275      38.96813922        3
Si       5.75938473       0.00590843      40.90972909        3
Si       1.91979491       1.35389275      38.96813922        3
Si       1.91979491       0.00590843      40.90972909        3
Si      -0.00000000       4.06659157      40.90972909        3
Si       3.83958982       2.71860725      38.96813922        3
Si      -0.00000000       4.06287277      44.80135314        2
Si       3.83958982       2.72147427      42.85462525        2
Si       1.91979491       1.35102573      42.85462525        2
Si       1.91979491       0.00962723      44.80135314        2
Si       5.75938473       1.35102573      42.85462525        2
Si       5.75938473       0.00962723      44.80135314        2
Si       3.83958982       4.06287277      44.80135314        2
Si      -0.00000000       2.72147427      42.85462525        2
Si       3.83958982       4.09681035      48.66181711        1
Si       0.00000000       2.71890857      46.75719863        1
Si       5.75938473       1.35359143      46.75719863        1
Si       5.75938473      -0.02431035      48.66181711        1
Si       1.91979491       1.35359143      46.75719863        1
Si       1.91979491      -0.02431035      48.66181711        1
Si       0.00000000       4.09681035      48.66181711        1
Si       3.83958982       2.71890857      46.75719863        1
80
Lattice="7.679179643685906 0.0 0.0 3.8395898218429525 6.650364651656329 0.0 0.0 0.0 52.99886064572193" Properties=species:S:1:pos:R:3:tags:I:1 from_key=dc1c8459631d73baf5ffede9c29013b6cc50e0b9ba32ae40627a02ebe19114fd energy=-425.8361742445325 label_model=mpa-0 miller=111 config_type=slab-relaxed pbc="T T F"
Si       0.00000000       0.00000000      12.63181472       10
Si       3.83958982       2.21678822      11.82320725       10
Si       1.91979491       3.32518233      12.63181472       10
Si       5.75938473       5.54197054      11.82320725       10
Si       3.83958982       0.00000000      12.63181472       10
Si       7.67917964       2.21678822      11.82320725       10
Si       5.75938473       3.32518233      12.63181472       10
Si       9.59897455       5.54197054      11.82320725       10
Si       7.67917964       4.43357643      15.81527538        9
Si       7.67917964       0.00000000      15.01399947        9
Si       5.75938473       1.10839411      15.81527538        9
Si       1.91979491       3.32518233      15.01399947        9
Si       3.83958982       4.43357643      15.81527538        9
Si       3.83958982       0.00000000      15.01399947        9
Si       1.91979491       1.10839411      15.81527538        9
Si       5.75938473       3.32518233      15.01399947        9
Si       3.83958982       2.21678822      18.98358018        8
Si       7.67917964       4.43357643      18.18075939        8
Si       5.75938473       5.54197054      18.98358018        8
Si       5.75938473       1.10839411      18.18075939        8
Si       7.67917964       2.21678822      18.98358018        8
Si       3.83958982       4.43357643      18.18075939        8
Si       9.59897455       5.54197054      18.98358018        8
Si       1.91979491       1.10839411      18.18075939        8
Si       0.00000000       0.00000000      22.15057745        7
Si       3.83958982       2.21678822      21.34874928        7
Si       1.91979491       3.32518233      22.15057745        7
Si       5.75938473       5.54197054      21.34874928        7
Si       3.83958982       0.00000000      22.15057745        7
Si       7.67917964       2.21678822      21.34874928        7
Si       5.75938473       3.32518233      22.15057745        7
Si       9.59897455       5.54197054      21.34874928        7
Si       7.67917964       4.43357643      25.31744946        6
Si       7.67917964       0.00000000      24.51744853        6
Si       5.75938473       1.10839411      25.31744946        6
Si       1.91979491       3.32518233      24.51744853        6
Si       3.83958982       4.43357643      25.31744946        6
Si       3.83958982       0.00000000      24.51744853        6
Si       1.91979491       1.10839411      25.31744946        6
Si       5.75938473       3.32518233      24.51744853        6
Si       3.83958982       2.21678822      28.48141212        5
Si       7.67917964       4.43357643      27.68141118        5
Si       5.75938473       5.54197054      28.48141212        5
Si       5.75938473       1.10839411      27.68141118        5
Si       7.67917964       2.21678822      28.48141212        5
Si       3.83958982       4.43357643      27.68141118        5
Si       9.59897455       5.54197054      28.48141212        5
Si       1.91979491       1.10839411      27.68141118        5
Si       0.00000000       0.00000000      31.65011136        4
Si       3.83958982       2.21678822      30.84828320        4
Si       1.91979491       3.32518233      31.65011136        4
Si       5.75938473       5.54197054      30.84828320        4
Si       3.83958982       0.00000000      31.65011136        4
Si       7.67917964       2.21678822      30.84828320        4
Si       5.75938473       3.32518233      31.65011136        4
Si       9.59897455       5.54197054      30.84828320        4
Si       7.67917964       4.43357643      34.81810126        3
Si       7.67917964       0.00000000      34.01528046        3
Si       5.75938473       1.10839411      34.81810126        3
Si       1.91979491       3.32518233      34.01528046        3
Si       3.83958982       4.43357643      34.81810126        3
Si       3.83958982      -0.00000000      34.01528046        3
Si       1.91979491       1.10839411      34.81810126        3
Si       5.75938473       3.32518233      34.01528046        3
Si       3.83958982       2.21678822      37.98486118        2
Si       7.67917964       4.43357643      37.18358527        2
Si       5.75938473       5.54197054      37.98486118        2
Si       5.75938473       1.10839411      37.18358527        2
Si       7.67917964       2.21678822      37.98486118        2
Si       3.83958982       4.43357643      37.18358527        2
Si       9.59897455       5.54197054      37.98486118        2
Si       1.91979491       1.10839411      37.18358527        2
Si      -0.00000000       0.00000000      41.17565340        1
Si       3.83958982       2.21678822      40.36704592        1
Si       1.91979491       3.32518233      41.17565340        1
Si       5.75938473       5.54197054      40.36704592        1
Si       3.83958982       0.00000000      41.17565340        1
Si       7.67917964       2.21678822      40.36704592        1
Si       5.75938473       3.32518233      41.17565340        1
Si       9.59897455       5.54197054      40.36704592        1
96
Lattice="5.43 0.0 0.0 0.0 5.43 0.0 0.0 0.0 75.8025" Properties=species:S:1:pos:R:3:tags:I:1 from_key=b907c628c878d5a5427c80349cbf31736890c9c3e10595acd3b73d0cc7c057b3 energy=-512.5875780967723 label_model=mpa-0 miller=100 config_type=slab-relaxed pbc="T T F"
Si       1.35750000       1.35750000       6.92209500       12
Si       2.71500000       2.71500000       8.29321199       12
Si       4.07250000       4.07250000       6.92209500       12
Si      -0.00000000       0.00000000       8.29321199       12
Si       1.35750000       4.07250000       9.67942559       12
Si       2.71499995      -0.00000005       5.50269461       12
Si       4.07250000       1.35750000       9.67942559       12
Si       0.00000005       2.71500005       5.50269461       12
Si       1.35750000       1.35750000      12.43638027       11
Si       2.71500000       2.71500000      13.81242338       11
Si       4.07250000       4.07250000      12.43638027       11
Si      -0.00000000       0.00000000      13.81242338       11
Si       1.35750000       4.07250000      15.18932180       11
Si       2.71500000      -0.00000000      11.06095650       11
Si       4.07250000       1.35750000      15.18932180       11
Si       0.00000000       2.71500000      11.06095650       11
Si       1.35750000       1.35750000      17.94267067       10
Si       2.71500000       2.71500000      19.31818560       10
Si       4.07250000       4.07250000      17.94267067       10
Si      -0.00000000       0.00000000      19.31818560       10
Si       1.35750000       4.07250000      20.69575620       10
Si       2.71500000      -0.00000000      16.56559861       10
Si       4.07250000       1.35750000      20.69575620       10
Si       0.00000000       2.71500000      16.56559861       10
Si       1.35750000       1.35750000      23.44753067        9
Si       2.71500000       2.71500000      24.82451159        9
Si       4.07250000       4.07250000      23.44753067        9
Si      -0.00000000       0.00000000      24.82451159        9
Si       1.35750000       4.07250000      26.20267112        9
Si       2.71500000      -0.00000000      22.07271741        9
Si       4.07250000       1.35750000      26.20267112        9
Si       0.00000000       2.71500000      22.07271741        9
Si       1.35750000       1.35750000      28.95425994        8
Si       2.71500000       2.71500000      30.32984647        8
Si       4.07250000       4.07250000      28.95425994        8
Si       0.00000000      -0.00000000      30.32984647        8
Si       1.35750000       4.07250000      31.70705155        8
Si       2.71500000      -0.00000000      27.57918196        8
Si       4.07250000       1.35750000      31.70705155        8
Si       0.00000000       2.71500000      27.57918196        8
Si       1.35750000       1.35750000      34.46326114        7
Si       2.71500000       2.71500000      35.83961881        7
Si       4.07250000       4.07250000      34.46326114        7
Si      -0.00000000      -0.00000000      35.83961881        7
Si       1.35750000       4.07250000      37.21427940        7
Si       2.71500000      -0.00000000      33.08533940        7
Si       4.07250000       1.35750000      37.21427940        7
Si      -0.00000000       2.71500000      33.08533940        7
Si       1.35750000       1.35750000      39.96288119        6
Si       2.71500000       2.71500000      41.33923886        6
Si       4.07250000       4.07250000      39.96288119        6
Si      -0.00000000      -0.00000000      41.33923886        6
Si       1.35750000       4.07250000      42.71716060        6
Si       2.71500000      -0.00000000      38.58822060        6
Si       4.07250000       1.35750000      42.71716060        6
Si      -0.00000000       2.71500000      38.58822060        6
Si       1.35750000       1.35750000      45.47265353        5
Si       2.71500000       2.71500000      46.84824006        5
Si       4.07250000       4.07250000      45.47265353        5
Si       0.00000000      -0.00000000      46.84824006        5
Si       1.35750000       4.07250000      48.22331804        5
Si       2.71500000      -0.00000000      44.09544845        5
Si       4.07250000       1.35750000      48.22331804        5
Si      -0.00000000       2.71500000      44.09544845        5
Si       1.35750000       1.35750000      50.97798841        4
Si       2.71500000       2.71500000      52.35496933        4
Si       4.07250000       4.07250000      50.97798841        4
Si      -0.00000000      -0.00000000      52.35496933        4
Si       1.35750000       4.07250000      53.72978259        4
Si       2.71500000      -0.00000000      49.59982888        4
Si       4.07250000       1.35750000      53.72978259        4
Si      -0.00000000       2.71500000      49.59982888        4
Si       1.35750000       1.35750000      56.48431440        3
Si       2.71500000       2.71500000      57.85982933        3
Si       4.07250000       4.07250000      56.48431440        3
Si       0.00000000      -0.00000000      57.85982933        3
Si       1.35750000       4.07250000      59.23690139        3
Si       2.71500000      -0.00000000      55.10674380        3
Si       4.07250000       1.35750000      59.23690139        3
Si      -0.00000000       2.71500000      55.10674380        3
Si       1.35750000       1.35750000      61.99007662        2
Si       2.71500000       2.71500000      63.36611973        2
Si       4.07250000       4.07250000      61.99007662        2
Si       0.00000000      -0.00000000      63.36611973        2
Si       1.35750000       4.07250000      64.74154350        2
Si       2.71500000      -0.00000000      60.61317820        2
Si       4.07250000       1.35750000      64.74154350        2
Si      -0.00000000       2.71500000      60.61317820        2
Si       1.35750000       1.35750000      67.50928801        1
Si       2.71500000       2.71500000      68.88040500        1
Si       4.07250000       4.07250000      67.50928801        1
Si       0.00000000       0.00000000      68.88040500        1
Si       1.35750004       4.07250004      70.29980539        1
Si       2.71500000      -0.00000000      66.12307441        1
Si       4.07249996       1.35749996      70.29980539        1
Si      -0.00000000       2.71500000      66.12307441        1
96
Lattice="7.679179643685906 0.0 0.0 0.0 5.43 0.0 0.0 0.0 56.15528295119397" Properties=species:S:1:pos:R:3:tags:I:1 from_key=978adcee8a09dc14cb9a00989a67e5cf7739e49d8e1376157660aa4bd1c48ecb energy=-512.7578506910262 label_model=mpa-0 miller=110 config_type=slab-relaxed pbc="T T F"
Si       7.67917964       4.06601199       7.67625687       12
Si       3.83958982       2.69085316       5.77262208       12
Si       1.91979491       1.38164684       5.77262208       12
Si       1.91979491       0.00648801       7.67625687       12
Si       5.75938473       1.38164684       5.77262208       12
Si       5.75938473       0.00648801       7.67625687       12
Si       3.83958982       4.06601199       7.67625687       12
Si      -0.00000000       2.69085316       5.77262208       12
Si       3.83958982       4.06745852      11.58295283       11
Si       7.67917964       2.72429456       9.63623104       11
Si       5.75938473       1.34820544       9.63623104       11
Si       5.75938473       0.00504148      11.58295283       11
Si       1.91979491       1.34820544       9.63623104       11
Si       1.91979491       0.00504148      11.58295283       11
Si       7.67917964       4.06745852      11.58295283       11
Si       3.83958982       2.72429456       9.63623104       11
Si       7.67917964       4.06671916      15.46515934       10
Si       3.83958982       2.71833692      13.52335288       10
Si       1.91979491       1.35416308      13.52335288       10
Si       1.91979491       0.00578084      15.46515934       10
Si       5.75938473       1.35416308      13.52335288       10
Si       5.75938473       0.00578084      15.46515934       10
Si       3.83958982       4.06671916      15.46515934       10
Si       7.67917964       2.71833692      13.52335288       10
Si       3.83958982       4.06817757      19.34337651        9
Si       7.67917964       2.71793527      17.40569426        9
Si       5.75938473       1.35456473      17.40569426        9
Si       5.75938473       0.00432243      19.34337651        9
Si       1.91979491       1.35456473      17.40569426        9
Si       1.91979491       0.00432243      19.34337651        9
Si       7.67917964       4.06817757      19.34337651        9
Si       3.83958982       2.71793527      17.40569426        9
Si      -0.00000000       4.06746856      23.22988274        8
Si       3.83958982       2.72066937      21.28608001        8
Si       1.91979491       1.35183063      21.28608001        8
Si       1.91979491       0.00503144      23.22988274        8
Si       5.75938473       1.35183063      21.28608001        8
Si       5.75938473       0.00503144      23.22988274        8
Si       3.83958982       4.06746856      23.22988274        8
Si       7.67917964       2.72066937      21.28608001        8
Si       3.83958982       4.06891346      27.10908433        7
Si      -0.00000000       2.71912107      25.17089149        7
Si       5.75938473       1.35337893      25.17089149        7
Si       5.75938473       0.00358654      27.10908433        7
Si       1.91979491       1.35337893      25.17089149        7
Si       1.91979491       0.00358654      27.10908433        7
Si       7.67917964       4.06891346      27.10908433        7
Si       3.83958982       2.71912107      25.17089149        7
Si      -0.00000000       4.06837893      30.98439146        6
Si       3.83958982       2.71858654      29.04619862        6
Si       1.91979491       1.35391346      29.04619862        6
Si       1.91979491       0.00412107      30.98439146        6
Si       5.75938473       1.35391346      29.04619862        6
Si       5.75938473       0.00412107      30.98439146        6
Si       3.83958982       4.06837893      30.98439146        6
Si       7.67917964       2.71858654      29.04619862        6
Si       3.83958982       4.06683063      34.86920294        5
Si      -0.00000000       2.72003144      32.92540022        5
Si       5.75938473       1.35246856      32.92540022        5
Si       5.75938473       0.00566937      34.86920294        5
Si       1.91979491       1.35246856      32.92540022        5
Si       1.91979491       0.00566937      34.86920294        5
Si       7.67917964       4.06683063      34.86920294        5
Si       3.83958982       2.72003144      32.92540022        5
Si      -0.00000000       4.06956473      38.74958869        4
Si       3.83958982       2.71932243      36.81190644        4
Si       1.91979491       1.35317757      36.81190644        4
Si       1.91979491       0.00293527      38.74958869        4
Si       5.75938473       1.35317757      36.81190644        4
Si       5.75938473       0.00293527      38.74958869        4
Si       3.83958982       4.06956473      38.74958869        4
Si       7.67917964       2.71932243      36.81190644        4
Si       3.83958982       4.06916308      42.63193007        3
Si      -0.00000000       2.72078084      40.69012361        3
Si       5.75938473       1.35171916      40.69012361        3
Si       5.75938473       0.00333692      42.63193007        3
Si       1.91979491       1.35171916      40.69012361        3
Si       1.91979491       0.00333692      42.63193007        3
Si      -0.00000000       4.06916308      42.63193007        3
Si       3.83958982       2.72078084      40.69012361        3
Si       0.00000000       4.06320544      46.51905191        2
Si       3.83958982       2.72004148      44.57233012        2
Si       1.91979491       1.35245852      44.57233012        2
Si       1.91979491       0.00929456      46.51905191        2
Si       5.75938473       1.35245852      44.57233012        2
Si       5.75938473       0.00929456      46.51905191        2
Si       3.83958982       4.06320544      46.51905191        2
Si       7.67917964       2.72004148      44.57233012        2
Si       3.83958982       4.09664684      50.38266087        1
Si       7.67917964       2.72148801      48.47902608        1
Si       5.75938473       1.35101199      48.47902608        1
Si       5.75938473      -0.02414684      50.38266087        1
Si       1.91979491       1.35101199      48.47902608        1
Si       1.91979491      -0.02414684      50.38266087        1
Si       7.67917964       4.09664684      50.38266087        1
Si       3.83958982       2.72148801      48.47902608        1
96
Lattice="7.679179643685906 0.0 0.0 3.8395898218429525 6.650364651656329 0.0 0.0 0.0 47.26888456912127" Properties=species:S:1:pos:R:3:tags:I:1 from_key=55addaca4b9c5ab2807c930d066d822826136e6456f85e557f560f76629c6d5a energy=-512.4517814268827 label_model=mpa-0 miller=111 config_type=slab-relaxed pbc="T T F"
Si       0.00000000       0.00000000       6.60214934       12
Si       3.83958982       2.21678822       5.79711876       12
Si       1.91979491       3.32518233       6.60214934       12
Si       5.75938473       5.54197054       5.79711876       12
Si       3.83958982       0.00000000       6.60214934       12
Si       7.67917964       2.21678822       5.79711876       12
Si       5.75938473       3.32518233       6.60214934       12
Si       9.59897455       5.54197054       5.79711876       12
Si       7.67917964       4.43357643       9.78657517       11
Si      -0.00000000       0.00000000       8.97978881       11
Si       5.75938473       1.10839411       9.78657517       11
Si       1.91979491       3.32518233       8.97978881       11
Si       3.83958982       4.43357643       9.78657517       11
Si       7.67917964       6.65036465       8.97978881       11
Si       1.91979491       1.10839411       9.78657517       11
Si       5.75938473       3.32518233       8.97978881       11
Si       3.83958982       2.21678822      12.95303836       10
Si       7.67917964       4.43357643      12.15160328       10
Si       5.75938473       5.54197054      12.95303836       10
Si       5.75938473       1.10839411      12.15160328       10
Si       7.67917964       2.21678822      12.95303836       10
Si       3.83958982       4.43357643      12.15160328       10
Si       9.59897455       5.54197054      12.95303836       10
Si       1.91979491       1.10839411      12.15160328       10
Si       0.00000000      -0.00000000      16.11769637        9
Si       3.83958982       2.21678822      15.31816053        9
Si       1.91979491       3.32518233      16.11769637        9
Si       5.75938473       5.54197054      15.31816053        9
Si       3.83958982      -0.00000000      16.11769637        9
Si       7.67917964       2.21678822      15.31816053        9
Si       5.75938473       3.32518233      16.11769637        9
Si       9.59897455       5.54197054      15.31816053        9
Si       7.67917964       4.43357643      19.29157800        8
Si      -0.00000000       0.00000000      18.48646296        8
Si       5.75938473       1.10839411      19.29157800        8
Si       1.91979491       3.32518233      18.48646296        8
Si       3.83958982       4.43357643      19.29157800        8
Si       3.83958982      -0.00000000      18.48646296        8
Si       1.91979491       1.10839411      19.29157800        8
Si       5.75938473       3.32518233      18.48646296        8
Si       3.83958982       2.21678822      22.45365264        7
Si       7.67917964       4.43357643      21.65665212        7
Si       5.75938473       5.54197054      22.45365264        7
Si       5.75938473       1.10839411      21.65665212        7
Si       7.67917964       2.21678822      22.45365264        7
Si       3.83958982       4.43357643      21.65665212        7
Si       9.59897455       5.54197054      22.45365264        7
Si       1.91979491       1.10839411      21.65665212        7
Si      -0.00000000       0.00000000      25.61223245        6
Si       3.83958982       2.21678822      24.81523193        6
Si       1.91979491       3.32518233      25.61223245        6
Si       5.75938473       5.54197054      24.81523193        6
Si       3.83958982      -0.00000000      25.61223245        6
Si       7.67917964       2.21678822      24.81523193        6
Si       5.75938473       3.32518233      25.61223245        6
Si       9.59897455       5.54197054      24.81523193        6
Si       7.67917964       4.43357643      28.78242161        5
Si      -0.00000000      -0.00000000      27.97730657        5
Si       5.75938473       1.10839411      28.78242161        5
Si       1.91979491       3.32518233      27.97730657        5
Si       3.83958982       4.43357643      28.78242161        5
Si       7.67917964       6.65036465      27.97730657        5
Si       1.91979491       1.10839411      28.78242161        5
Si       5.75938473       3.32518233      27.97730657        5
Si       3.83958982       2.21678822      31.95072403        4
Si       7.67917964       4.43357643      31.15118820        4
Si       5.75938473       5.54197054      31.95072403        4
Si       5.75938473       1.10839411      31.15118820        4
Si       7.67917964       2.21678822      31.95072403        4
Si       3.83958982       4.43357643      31.15118820        4
Si       9.59897455       5.54197054      31.95072403        4
Si       1.91979491       1.10839411      31.15118820        4
Si       0.00000000       0.00000000      35.11728129        3
Si       3.83958982       2.21678822      34.31584621        3
Si       1.91979491       3.32518233      35.11728129        3
Si       5.75938473       5.54197054      34.31584621        3
Si       3.83958982      -0.00000000      35.11728129        3
Si       7.67917964       2.21678822      34.31584621        3
Si       5.75938473       3.32518233      35.11728129        3
Si       9.59897455       5.54197054      34.31584621        3
Si       7.67917964       4.43357643      38.28909576        2
Si      -0.00000000       0.00000000      37.48230940        2
Si       5.75938473       1.10839411      38.28909576        2
Si       1.91979491       3.32518233      37.48230940        2
Si       3.83958982       4.43357643      38.28909576        2
Si       3.83958982      -0.00000000      37.48230940        2
Si       1.91979491       1.10839411      38.28909576        2
Si       5.75938473       3.32518233      37.48230940        2
Si       3.83958982       2.21678822      41.47176581        1
Si       7.67917964       4.43357643      40.66673523        1
Si       5.75938473       5.54197054      41.47176581        1
Si       5.75938473       1.10839411      40.66673523        1
Si       7.67917964       2.21678822      41.47176581        1
Si       3.83958982       4.43357643      40.66673523        1
Si       9.59897455       5.54197054      41.47176581        1
Si       1.91979491       1.10839411      40.66673523        1
96
Lattice="5.43 0.0 0.0 0.0 5.43 0.0 0.0 0.0 79.8025" Properties=species:S:1:pos:R:3:tags:I:1 from_key=eb7dbdf05ac25f7f51717c963a70f1ed0a606f75365efa690e0bee890cecc3b6 energy=-512.5875780967725 label_model=mpa-0 miller=100 config_type=slab-relaxed pbc="T T F"
Si       1.35750000       1.35750000       8.92209500       12
Si       2.71500001       2.71499999      10.29321199       12
Si       4.07250000       4.07250000       8.92209500       12
Si      -0.00000001       0.00000001      10.29321199       12
Si       1.35750000       4.07250000      11.67942558       12
Si       2.71499984      -0.00000016       7.50269461       12
Si       4.07250000       1.35750000      11.67942559       12
Si       0.00000016       2.71500016       7.50269461       12
Si       1.35750000       1.35750000      14.43638027       11
Si       2.71500000       2.71500000      15.81242338       11
Si       4.07250000       4.07250000      14.43638027       11
Si      -0.00000000       0.00000000      15.81242338       11
Si       1.35750000       4.07250000      17.18932180       11
Si       2.71500000      -0.00000000      13.06095650       11
Si       4.07250000       1.35750000      17.18932180       11
Si       0.00000000       2.71500000      13.06095650       11
Si       1.35750000       1.35750000      19.94267067       10
Si       2.71500000       2.71500000      21.31818560       10
Si       4.07250000       4.07250000      19.94267067       10
Si      -0.00000000       0.00000000      21.31818560       10
Si       1.35750000       4.07250000      22.69575620       10
Si       2.71500000      -0.00000000      18.56559861       10
Si       4.07250000       1.35750000      22.69575620       10
Si       0.00000000       2.71500000      18.56559861       10
Si       1.35750000       1.35750000      25.44753067        9
Si       2.71500000       2.71500000      26.82451159        9
Si       4.07250000       4.07250000      25.44753067        9
Si      -0.00000000       0.00000000      26.82451159        9
Si       1.35750000       4.07250000      28.20267112        9
Si       2.71500000      -0.00000000      24.07271741        9
Si       4.07250000       1.35750000      28.20267112        9
Si       0.00000000       2.71500000      24.07271741        9
Si       1.35750000       1.35750000      30.95425994        8
Si       2.71500000       2.71500000      32.32984647        8
Si       4.07250000       4.07250000      30.95425994        8
Si      -0.00000000       0.00000000      32.32984647        8
Si       1.35750000       4.07250000      33.70705155        8
Si       2.71500000      -0.00000000      29.57918196        8
Si       4.07250000       1.35750000      33.70705155        8
Si       0.00000000       2.71500000      29.57918196        8
Si       1.35750000       1.35750000      36.46326114        7
Si       2.71500000       2.71500000      37.83961881        7
Si       4.07250000       4.07250000      36.46326114        7
Si      -0.00000000      -0.00000000      37.83961881        7
Si       1.35750000       4.07250000      39.21427940        7
Si       2.71500000      -0.00000000      35.08533940        7
Si       4.07250000       1.35750000      39.21427940        7
Si       0.00000000       2.71500000      35.08533940        7
Si       1.35750000       1.35750000      41.96288119        6
Si       2.71500000       2.71500000      43.33923886        6
Si       4.07250000       4.07250000      41.96288119        6
Si       0.00000000      -0.00000000      43.33923886        6
Si       1.35750000       4.07250000      44.71716060        6
Si       2.71500000       0.00000000      40.58822060        6
Si       4.07250000       1.35750000      44.71716060        6
Si       0.00000000       2.71500000      40.58822060        6
Si       1.35750000       1.35750000      47.47265353        5
Si       2.71500000       2.71500000      48.84824006        5
Si       4.07250000       4.07250000      47.47265353        5
Si       0.00000000       0.00000000      48.84824006        5
Si       1.35750000       4.07250000      50.22331804        5
Si       2.71500000       0.00000000      46.09544845        5
Si       4.07250000       1.35750000      50.22331804        5
Si      -0.00000000       2.71500000      46.09544845        5
Si       1.35750000       1.35750000      52.97798841        4
Si       2.71500000       2.71500000      54.35496933        4
Si       4.07250000       4.07250000      52.97798841        4
Si       0.00000000      -0.00000000      54.35496933        4
Si       1.35750000       4.07250000      55.72978259        4
Si       2.71500000       0.00000000      51.59982888        4
Si       4.07250000       1.35750000      55.72978259        4
Si       0.00000000       2.71500000      51.59982888        4
Si       1.35750000       1.35750000      58.48431440        3
Si       2.71500000       2.71500000      59.85982933        3
Si       4.07250000       4.07250000      58.48431440        3
Si       0.00000000       0.00000000      59.85982933        3
Si       1.35750000       4.07250000      61.23690139        3
Si       2.71500000       0.00000000      57.10674380        3
Si       4.07250000       1.35750000      61.23690139        3
Si      -0.00000000       2.71500000      57.10674380        3
Si       1.35750000       1.35750000      63.99007662        2
Si       2.71500000       2.71500000      65.36611973        2
Si       4.07250000       4.07250000      63.99007662        2
Si      -0.00000000       0.00000000      65.36611973        2
Si       1.35750000       4.07250000      66.74154350        2
Si       2.71500000      -0.00000000      62.61317820        2
Si       4.07250000       1.35750000      66.74154350        2
Si       0.00000000       2.71500000      62.61317820        2
Si       1.35750000       1.35750000      69.50928801        1
Si       2.71500000       2.71500000      70.88040500        1
Si       4.07250000       4.07250000      69.50928801        1
Si      -0.00000000       0.00000000      70.88040500        1
Si       1.35750001       4.07250001      72.29980539        1
Si       2.71500000      -0.00000000      68.12307441        1
Si       4.07249999       1.35749999      72.29980539        1
Si       0.00000000       2.71500000      68.12307441        1
96
Lattice="7.679179643685906 0.0 0.0 0.0 5.43 0.0 0.0 0.0 60.15528295119397" Properties=species:S:1:pos:R:3:tags:I:1 from_key=e65caeee5add70c3f7808e6c163354ab5e71317677176f9848ccc47d7b65aad7 energy=-512.7578506910262 label_model=mpa-0 miller=110 config_type=slab-relaxed pbc="T T F"
Si       7.67917964       4.06601199       9.67625687       12
Si       3.83958982       2.69085316       7.77262208       12
Si       1.91979491       1.38164684       7.77262208       12
Si       1.91979491       0.00648801       9.67625687       12
Si       5.75938473       1.38164684       7.77262208       12
Si       5.75938473       0.00648801       9.67625687       12
Si       3.83958982       4.06601199       9.67625687       12
Si       0.00000000       2.69085316       7.77262208       12
Si       3.83958982       4.06745852      13.58295283       11
Si       7.67917964       2.72429456      11.63623104       11
Si       5.75938473       1.34820544      11.63623104       11
Si       5.75938473       0.00504148      13.58295283       11
Si       1.91979491       1.34820544      11.63623104       11
Si       1.91979491       0.00504148      13.58295283       11
Si       7.67917964       4.06745852      13.58295283       11
Si       3.83958982       2.72429456      11.63623104       11
Si       7.67917964       4.06671916      17.46515934       10
Si       3.83958982       2.71833692      15.52335288       10
Si       1.91979491       1.35416308      15.52335288       10
Si       1.91979491       0.00578084      17.46515934       10
Si       5.75938473       1.35416308      15.52335288       10
Si       5.75938473       0.00578084      17.46515934       10
Si       3.83958982       4.06671916      17.46515934       10
Si       7.67917964       2.71833692      15.52335288       10
Si       3.83958982       4.06817757      21.34337651        9
Si       7.67917964       2.71793527      19.40569426        9
Si       5.75938473       1.35456473      19.40569426        9
Si       5.75938473       0.00432243      21.34337651        9
Si       1.91979491       1.35456473      19.40569426        9
Si       1.91979491       0.00432243      21.34337651        9
Si       7.67917964       4.06817757      21.34337651        9
Si       3.83958982       2.71793527      19.40569426        9
Si      -0.00000000       4.06746856      25.22988274        8
Si       3.83958982       2.72066937      23.28608001        8
Si       1.91979491       1.35183063      23.28608001        8
Si       1.91979491       0.00503144      25.22988274        8
Si       5.75938473       1.35183063      23.28608001        8
Si       5.75938473       0.00503144      25.22988274        8
Si       3.83958982       4.06746856      25.22988274        8
Si       7.67917964       2.72066937      23.28608001        8
Si       3.83958982       4.06891346      29.10908433        7
Si       0.00000000       2.71912107      27.17089149        7
Si       5.75938473       1.35337893      27.17089149        7
Si       5.75938473       0.00358654      29.10908433        7
Si       1.91979491       1.35337893      27.17089149        7
Si       1.91979491       0.00358654      29.10908433        7
Si       7.67917964       4.06891346      29.10908433        7
Si       3.83958982       2.71912107      27.17089149        7
Si      -0.00000000       4.06837893      32.98439146        6
Si       3.83958982       2.71858654      31.04619862        6
Si       1.91979491       1.35391346      31.04619862        6
Si       1.91979491       0.00412107      32.98439146        6
Si       5.75938473       1.35391346      31.04619862        6
Si       5.75938473       0.00412107      32.98439146        6
Si       3.83958982       4.06837893      32.98439146        6
Si       7.67917964       2.71858654      31.04619862        6
Si       3.83958982       4.06683063      36.86920294        5
Si      -0.00000000       2.72003144      34.92540022        5
Si       5.75938473       1.35246856      34.92540022        5
Si       5.75938473       0.00566937      36.86920294        5
Si       1.91979491       1.35246856      34.92540022        5
Si       1.91979491       0.00566937      36.86920294        5
Si       7.67917964       4.06683063      36.86920294        5
Si       3.83958982       2.72003144      34.92540022        5
Si      -0.00000000       4.06956473      40.74958869        4
Si       3.83958982       2.71932243      38.81190644        4
Si       1.91979491       1.35317757      38.81190644        4
Si       1.91979491       0.00293527      40.74958869        4
Si       5.75938473       1.35317757      38.81190644        4
Si       5.75938473       0.00293527      40.74958869        4
Si       3.83958982       4.06956473      40.74958869        4
Si       7.67917964       2.71932243      38.81190644        4
Si       3.83958982       4.06916308      44.63193007        3
Si      -0.00000000       2.72078084      42.69012361        3
Si       5.75938473       1.35171916      42.69012361        3
Si       5.75938473       0.00333692      44.63193007        3
Si       1.91979491       1.35171916      42.69012361        3
Si       1.91979491       0.00333692      44.63193007        3
Si       0.00000000       4.06916308      44.63193007        3
Si       3.83958982       2.72078084      42.69012361        3
Si       0.00000000       4.06320544      48.51905191        2
Si       3.83958982       2.72004148      46.57233012        2
Si       1.91979491       1.35245852      46.57233012        2
Si       1.91979491       0.00929456      48.51905191        2
Si       5.75938473       1.35245852      46.57233012        2
Si       5.75938473       0.00929456      48.51905191        2
Si       3.83958982       4.06320544      48.51905191        2
Si       7.67917964       2.72004148      46.57233012        2
Si       3.83958982       4.09664684      52.38266087        1
Si       7.67917964       2.72148801      50.47902608        1
Si       5.75938473       1.35101199      50.47902608        1
Si       5.75938473      -0.02414684      52.38266087        1
Si       1.91979491       1.35101199      50.47902608        1
Si       1.91979491      -0.02414684      52.38266087        1
Si       7.67917964       4.09664684      52.38266087        1
Si       3.83958982       2.72148801      50.47902608        1
96
Lattice="7.679179643685906 0.0 0.0 3.8395898218429525 6.650364651656329 0.0 0.0 0.0 51.26888456912127" Properties=species:S:1:pos:R:3:tags:I:1 from_key=0a65866e7b1e6ffcce51aa0ffa9ae330fb60e364fe1bcb7b9b3392c929f134ee energy=-512.4517814268827 label_model=mpa-0 miller=111 config_type=slab-relaxed pbc="T T F"
Si       0.00000000      -0.00000000       8.60214934       12
Si       3.83958982       2.21678822       7.79711876       12
Si       1.91979491       3.32518233       8.60214934       12
Si       5.75938473       5.54197054       7.79711876       12
Si       3.83958982      -0.00000000       8.60214934       12
Si       7.67917964       2.21678822       7.79711876       12
Si       5.75938473       3.32518233       8.60214934       12
Si       9.59897455       5.54197054       7.79711876       12
Si       7.67917964       4.43357643      11.78657517       11
Si       0.00000000      -0.00000000      10.97978881       11
Si       5.75938473       1.10839411      11.78657517       11
Si       1.91979491       3.32518233      10.97978881       11
Si       3.83958982       4.43357643      11.78657517       11
Si       7.67917964       6.65036465      10.97978881       11
Si       1.91979491       1.10839411      11.78657517       11
Si       5.75938473       3.32518233      10.97978881       11
Si       3.83958982       2.21678822      14.95303836       10
Si       7.67917964       4.43357643      14.15160328       10
Si       5.75938473       5.54197054      14.95303836       10
Si       5.75938473       1.10839411      14.15160328       10
Si       7.67917964       2.21678822      14.95303836       10
Si       3.83958982       4.43357643      14.15160328       10
Si       9.59897455       5.54197054      14.95303836       10
Si       1.91979491       1.10839411      14.15160328       10
Si      -0.00000000       0.00000000      18.11769637        9
Si       3.83958982       2.21678822      17.31816053        9
Si       1.91979491       3.32518233      18.11769637        9
Si       5.75938473       5.54197054      17.31816053        9
Si       3.83958982      -0.00000000      18.11769637        9
Si       7.67917964       2.21678822      17.31816053        9
Si       5.75938473       3.32518233      18.11769637        9
Si       9.59897455       5.54197054      17.31816053        9
Si       7.67917964       4.43357643      21.29157800        8
Si       0.00000000       0.00000000      20.48646296        8
Si       5.75938473       1.10839411      21.29157800        8
Si       1.91979491       3.32518233      20.48646296        8
Si       3.83958982       4.43357643      21.29157800        8
Si       3.83958982       0.00000000      20.48646296        8
Si       1.91979491       1.10839411      21.29157800        8
Si       5.75938473       3.32518233      20.48646296        8
Si       3.83958982       2.21678822      24.45365264        7
Si       7.67917964       4.43357643      23.65665212        7
Si       5.75938473       5.54197054      24.45365264        7
Si       5.75938473       1.10839411      23.65665212        7
Si       7.67917964       2.21678822      24.45365264        7
Si       3.83958982       4.43357643      23.65665212        7
Si       9.59897455       5.54197054      24.45365264        7
Si       1.91979491       1.10839411      23.65665212        7
Si      -0.00000000       0.00000000      27.61223245        6
Si       3.83958982       2.21678822      26.81523193        6
Si       1.91979491       3.32518233      27.61223245        6
Si       5.75938473       5.54197054      26.81523193        6
Si       3.83958982      -0.00000000      27.61223245        6
Si       7.67917964       2.21678822      26.81523193        6
Si       5.75938473       3.32518233      27.61223245        6
Si       9.59897455       5.54197054      26.81523193        6
Si       7.67917964       4.43357643      30.78242161        5
Si       0.00000000       0.00000000      29.97730657        5
Si       5.75938473       1.10839411      30.78242161        5
Si       1.91979491       3.32518233      29.97730657        5
Si       3.83958982       4.43357643      30.78242161        5
Si       7.67917964       6.65036465      29.97730657        5
Si       1.91979491       1.10839411      30.78242161        5
Si       5.75938473       3.32518233      29.97730657        5
Si       3.83958982       2.21678822      33.95072403        4
Si       7.67917964       4.43357643      33.15118820        4
Si       5.75938473       5.54197054      33.95072403        4
Si       5.75938473       1.10839411      33.15118820        4
Si       7.67917964       2.21678822      33.95072403        4
Si       3.83958982       4.43357643      33.15118820        4
Si       9.59897455       5.54197054      33.95072403        4
Si       1.91979491       1.10839411      33.15118820        4
Si       0.00000000      -0.00000000      37.11728129        3
Si       3.83958982       2.21678822      36.31584621        3
Si       1.91979491       3.32518233      37.11728129        3
Si       5.75938473       5.54197054      36.31584621        3
Si       3.83958982      -0.00000000      37.11728129        3
Si       7.67917964       2.21678822      36.31584621        3
Si       5.75938473       3.32518233      37.11728129        3
Si       9.59897455       5.54197054      36.31584621        3
Si       7.67917964       4.43357643      40.28909576        2
Si       0.00000000       0.00000000      39.48230940        2
Si       5.75938473       1.10839411      40.28909576        2
Si       1.91979491       3.32518233      39.48230940        2
Si       3.83958982       4.43357643      40.28909576        2
Si       3.83958982      -0.00000000      39.48230940        2
Si       1.91979491       1.10839411      40.28909576        2
Si       5.75938473       3.32518233      39.48230940        2
Si       3.83958982       2.21678822      43.47176581        1
Si       7.67917964       4.43357643      42.66673523        1
Si       5.75938473       5.54197054      43.47176581        1
Si       5.75938473       1.10839411      42.66673523        1
Si       7.67917964       2.21678822      43.47176581        1
Si       3.83958982       4.43357643      42.66673523        1
Si       9.59897455       5.54197054      43.47176581        1
Si       1.91979491       1.10839411      42.66673523        1
96
Lattice="5.43 0.0 0.0 0.0 5.43 0.0 0.0 0.0 83.8025" Properties=species:S:1:pos:R:3:tags:I:1 from_key=f53740af3e6f37fb8ecb2823b7f75ada82404892487d28122ce68d87218de729 energy=-512.5875780967725 label_model=mpa-0 miller=100 config_type=slab-relaxed pbc="T T F"
Si       1.35750000       1.35750000      10.92209500       12
Si       2.71500000       2.71500000      12.29321199       12
Si       4.07250000       4.07250000      10.92209500       12
Si      -0.00000000       0.00000000      12.29321199       12
Si       1.35750000       4.07250000      13.67942559       12
Si       2.71499998      -0.00000002       9.50269461       12
Si       4.07250000       1.35750000      13.67942559       12
Si       0.00000002       2.71500002       9.50269461       12
Si       1.35750000       1.35750000      16.43638027       11
Si       2.71500000       2.71500000      17.81242338       11
Si       4.07250000       4.07250000      16.43638027       11
Si      -0.00000000       0.00000000      17.81242338       11
Si       1.35750000       4.07250000      19.18932180       11
Si       2.71500000      -0.00000000      15.06095650       11
Si       4.07250000       1.35750000      19.18932180       11
Si       0.00000000       2.71500000      15.06095650       11
Si       1.35750000       1.35750000      21.94267067       10
Si       2.71500000       2.71500000      23.31818560       10
Si       4.07250000       4.07250000      21.94267067       10
Si      -0.00000000       0.00000000      23.31818560       10
Si       1.35750000       4.07250000      24.69575620       10
Si       2.71500000      -0.00000000      20.56559861       10
Si       4.07250000       1.35750000      24.69575620       10
Si       0.00000000       2.71500000      20.56559861       10
Si       1.35750000       1.35750000      27.44753067        9
Si       2.71500000       2.71500000      28.82451159        9
Si       4.07250000       4.07250000      27.44753067        9
Si      -0.00000000       0.00000000      28.82451159        9
Si       1.35750000       4.07250000      30.20267112        9
Si       2.71500000      -0.00000000      26.07271741        9
Si       4.07250000       1.35750000      30.20267112        9
Si       0.00000000       2.71500000      26.07271741        9
Si       1.35750000       1.35750000      32.95425994        8
Si       2.71500000       2.71500000      34.32984647        8
Si       4.07250000       4.07250000      32.95425994        8
Si      -0.00000000       0.00000000      34.32984647        8
Si       1.35750000       4.07250000      35.70705155        8
Si       2.71500000      -0.00000000      31.57918196        8
Si       4.07250000       1.35750000      35.70705155        8
Si       0.00000000       2.71500000      31.57918196        8
Si       1.35750000       1.35750000      38.46326114        7
Si       2.71500000       2.71500000      39.83961881        7
Si       4.07250000       4.07250000      38.46326114        7
Si       0.00000000       0.00000000      39.83961881        7
Si       1.35750000       4.07250000      41.21427940        7
Si       2.71500000      -0.00000000      37.08533940        7
Si       4.07250000       1.35750000      41.21427940        7
Si       0.00000000       2.71500000      37.08533940        7
Si       1.35750000       1.35750000      43.96288119        6
Si       2.71500000       2.71500000      45.33923886        6
Si       4.07250000       4.07250000      43.96288119        6
Si      -0.00000000       0.00000000      45.33923886        6
Si       1.35750000       4.07250000      46.71716060        6
Si       2.71500000       0.00000000      42.58822060        6
Si       4.07250000       1.35750000      46.71716060        6
Si       0.00000000       2.71500000      42.58822060        6
Si       1.35750000       1.35750000      49.47265353        5
Si       2.71500000       2.71500000      50.84824006        5
Si       4.07250000       4.07250000      49.47265353        5
Si      -0.00000000       0.00000000      50.84824006        5
Si       1.35750000       4.07250000      52.22331804        5
Si       2.71500000       0.00000000      48.09544845        5
Si       4.07250000       1.35750000      52.22331804        5
Si       0.00000000       2.71500000      48.09544845        5
Si       1.35750000       1.35750000      54.97798841        4
Si       2.71500000       2.71500000      56.35496933        4
Si       4.07250000       4.07250000      54.97798841        4
Si      -0.00000000      -0.00000000      56.35496933        4
Si       1.35750000       4.07250000      57.72978259        4
Si       2.71500000       0.00000000      53.59982888        4
Si       4.07250000       1.35750000      57.72978259        4
Si       0.00000000       2.71500000      53.59982888        4
Si       1.35750000       1.35750000      60.48431440        3
Si       2.71500000       2.71500000      61.85982933        3
Si       4.07250000       4.07250000      60.48431440        3
Si      -0.00000000      -0.00000000      61.85982933        3
Si       1.35750000       4.07250000      63.23690139        3
Si       2.71500000       0.00000000      59.10674380        3
Si       4.07250000       1.35750000      63.23690139        3
Si      -0.00000000       2.71500000      59.10674380        3
Si       1.35750000       1.35750000      65.99007662        2
Si       2.71500000       2.71500000      67.36611973        2
Si       4.07250000       4.07250000      65.99007662        2
Si      -0.00000000      -0.00000000      67.36611973        2
Si       1.35750000       4.07250000      68.74154350        2
Si       2.71500000       0.00000000      64.61317820        2
Si       4.07250000       1.35750000      68.74154350        2
Si       0.00000000       2.71500000      64.61317820        2
Si       1.35750000       1.35750000      71.50928801        1
Si       2.71500000       2.71500000      72.88040500        1
Si       4.07250000       4.07250000      71.50928801        1
Si       0.00000000      -0.00000000      72.88040500        1
Si       1.35749988       4.07249988      74.29980539        1
Si       2.71500000      -0.00000000      70.12307441        1
Si       4.07250012       1.35750012      74.29980539        1
Si      -0.00000000       2.71500000      70.12307441        1
96
Lattice="7.679179643685906 0.0 0.0 0.0 5.43 0.0 0.0 0.0 64.15528295119397" Properties=species:S:1:pos:R:3:tags:I:1 from_key=014eb22565bbcfb07682c0f7752ce56a23569a8ee2f104a58d6a94154615e7f3 energy=-512.7578506910261 label_model=mpa-0 miller=110 config_type=slab-relaxed pbc="T T F"
Si       7.67917964       4.06601199      11.67625687       12
Si       3.83958982       2.69085316       9.77262208       12
Si       1.91979491       1.38164684       9.77262208       12
Si       1.91979491       0.00648801      11.67625687       12
Si       5.75938473       1.38164684       9.77262208       12
Si       5.75938473       0.00648801      11.67625687       12
Si       3.83958982       4.06601199      11.67625687       12
Si       0.00000000       2.69085316       9.77262208       12
Si       3.83958982       4.06745852      15.58295283       11
Si       7.67917964       2.72429456      13.63623104       11
Si       5.75938473       1.34820544      13.63623104       11
Si       5.75938473       0.00504148      15.58295283       11
Si       1.91979491       1.34820544      13.63623104       11
Si       1.91979491       0.00504148      15.58295283       11
Si       7.67917964       4.06745852      15.58295283       11
Si       3.83958982       2.72429456      13.63623104       11
Si       7.67917964       4.06671916      19.46515934       10
Si       3.83958982       2.71833692      17.52335288       10
Si       1.91979491       1.35416308      17.52335288       10
Si       1.91979491       0.00578084      19.46515934       10
Si       5.75938473       1.35416308      17.52335288       10
Si       5.75938473       0.00578084      19.46515934       10
Si       3.83958982       4.06671916      19.46515934       10
Si       7.67917964       2.71833692      17.52335288       10
Si       3.83958982       4.06817757      23.34337651        9
Si       7.67917964       2.71793527      21.40569426        9
Si       5.75938473       1.35456473      21.40569426        9
Si       5.75938473       0.00432243      23.34337651        9
Si       1.91979491       1.35456473      21.40569426        9
Si       1.91979491       0.00432243      23.34337651        9
Si       7.67917964       4.06817757      23.34337651        9
Si       3.83958982       2.71793527      21.40569426        9
Si       0.00000000       4.06746856      27.22988274        8
Si       3.83958982       2.72066937      25.28608001        8
Si       1.91979491       1.35183063      25.28608001        8
Si       1.91979491       0.00503144      27.22988274        8
Si       5.75938473       1.35183063      25.28608001        8
Si       5.75938473       0.00503144      27.22988274        8
Si       3.83958982       4.06746856      27.22988274        8
Si       7.67917964       2.72066937      25.28608001        8
Si       3.83958982       4.06891346      31.10908433        7
Si      -0.00000000       2.71912107      29.17089149        7
Si       5.75938473       1.35337893      29.17089149        7
Si       5.75938473       0.00358654      31.10908433        7
Si       1.91979491       1.35337893      29.17089149        7
Si       1.91979491       0.00358654      31.10908433        7
Si       7.67917964       4.06891346      31.10908433        7
Si       3.83958982       2.71912107      29.17089149        7
Si       0.00000000       4.06837893      34.98439146        6
Si       3.83958982       2.71858654      33.04619862        6
Si       1.91979491       1.35391346      33.04619862        6
Si       1.91979491       0.00412107      34.98439146        6
Si       5.75938473       1.35391346      33.04619862        6
Si       5.75938473       0.00412107      34.98439146        6
Si       3.83958982       4.06837893      34.98439146        6
Si       7.67917964       2.71858654      33.04619862        6
Si       3.83958982       4.06683063      38.86920294        5
Si      -0.00000000       2.72003144      36.92540022        5
Si       5.75938473       1.35246856      36.92540022        5
Si       5.75938473       0.00566937      38.86920294        5
Si       1.91979491       1.35246856      36.92540022        5
Si       1.91979491       0.00566937      38.86920294        5
Si       7.67917964       4.06683063      38.86920294        5
Si       3.83958982       2.72003144      36.92540022        5
Si       0.00000000       4.06956473      42.74958869        4
Si       3.83958982       2.71932243      40.81190644        4
Si       1.91979491       1.35317757      40.81190644        4
Si       1.91979491       0.00293527      42.74958869        4
Si       5.75938473       1.35317757      40.81190644        4
Si       5.75938473       0.00293527      42.74958869        4
Si       3.83958982       4.06956473      42.74958869        4
Si       7.67917964       2.71932243      40.81190644        4
Si       3.83958982       4.06916308      46.63193007        3
Si      -0.00000000       2.72078084      44.69012361        3
Si       5.75938473       1.35171916      44.69012361        3
Si       5.75938473       0.00333692      46.63193007        3
Si       1.91979491       1.35171916      44.69012361        3
Si       1.91979491       0.00333692      46.63193007        3
Si      -0.00000000       4.06916308      46.63193007        3
Si       3.83958982       2.72078084      44.69012361        3
Si      -0.00000000       4.06320544      50.51905191        2
Si       3.83958982       2.72004148      48.57233012        2
Si       1.91979491       1.35245852      48.57233012        2
Si       1.91979491       0.00929456      50.51905191        2
Si       5.75938473       1.35245852      48.57233012        2
Si       5.75938473       0.00929456      50.51905191        2
Si       3.83958982       4.06320544      50.51905191        2
Si       7.67917964       2.72004148      48.57233012        2
Si       3.83958982       4.09664684      54.38266087        1
Si       7.67917964       2.72148801      52.47902608        1
Si       5.75938473       1.35101199      52.47902608        1
Si       5.75938473      -0.02414684      54.38266087        1
Si       1.91979491       1.35101199      52.47902608        1
Si       1.91979491      -0.02414684      54.38266087        1
Si       7.67917964       4.09664684      54.38266087        1
Si       3.83958982       2.72148801      52.47902608        1
96
Lattice="7.679179643685906 0.0 0.0 3.8395898218429525 6.650364651656329 0.0 0.0 0.0 55.26888456912127" Properties=species:S:1:pos:R:3:tags:I:1 from_key=aeb7565ea0bde09612b1ec8ec61e393176c533e45a7af4954a5a54562bff184a energy=-512.4517814268826 label_model=mpa-0 miller=111 config_type=slab-relaxed pbc="T T F"
Si      -0.00000000      -0.00000000      10.60214934       12
Si       3.83958982       2.21678822       9.79711876       12
Si       1.91979491       3.32518233      10.60214934       12
Si       5.75938473       5.54197054       9.79711876       12
Si       3.83958982       0.00000000      10.60214934       12
Si       7.67917964       2.21678822       9.79711876       12
Si       5.75938473       3.32518233      10.60214934       12
Si       9.59897455       5.54197054       9.79711876       12
Si       7.67917964       4.43357643      13.78657517       11
Si      -0.00000000       0.00000000      12.97978881       11
Si       5.75938473       1.10839411      13.78657517       11
Si       1.91979491       3.32518233      12.97978881       11
Si       3.83958982       4.43357643      13.78657517       11
Si       7.67917964       6.65036465      12.97978881       11
Si       1.91979491       1.10839411      13.78657517       11
Si       5.75938473       3.32518233      12.97978881       11
Si       3.83958982       2.21678822      16.95303836       10
Si       7.67917964       4.43357643      16.15160328       10
Si       5.75938473       5.54197054      16.95303836       10
Si       5.75938473       1.10839411      16.15160328       10
Si       7.67917964       2.21678822      16.95303836       10
Si       3.83958982       4.43357643      16.15160328       10
Si       9.59897455       5.54197054      16.95303836       10
Si       1.91979491       1.10839411      16.15160328       10
Si       0.00000000       0.00000000      20.11769637        9
Si       3.83958982       2.21678822      19.31816053        9
Si       1.91979491       3.32518233      20.11769637        9
Si       5.75938473       5.54197054      19.31816053        9
Si       3.83958982      -0.00000000      20.11769637        9
Si       7.67917964       2.21678822      19.31816053        9
Si       5.75938473       3.32518233      20.11769637        9
Si       9.59897455       5.54197054      19.31816053        9
Si       7.67917964       4.43357643      23.29157800        8
Si       0.00000000      -0.00000000      22.48646296        8
Si       5.75938473       1.10839411      23.29157800        8
Si       1.91979491       3.32518233      22.48646296        8
Si       3.83958982       4.43357643      23.29157800        8
Si       3.83958982      -0.00000000      22.48646296        8
Si       1.91979491       1.10839411      23.29157800        8
Si       5.75938473       3.32518233      22.48646296        8
Si       3.83958982       2.21678822      26.45365264        7
Si       7.67917964       4.43357643      25.65665212        7
Si       5.75938473       5.54197054      26.45365264        7
Si       5.75938473       1.10839411      25.65665212        7
Si       7.67917964       2.21678822      26.45365264        7
Si       3.83958982       4.43357643      25.65665212        7
Si       9.59897455       5.54197054      26.45365264        7
Si       1.91979491       1.10839411      25.65665212        7
Si      -0.00000000       0.00000000      29.61223245        6
Si       3.83958982       2.21678822      28.81523193        6
Si       1.91979491       3.32518233      29.61223245        6
Si       5.75938473       5.54197054      28.81523193        6
Si       3.83958982       0.00000000      29.61223245        6
Si       7.67917964       2.21678822      28.81523193        6
Si       5.75938473       3.32518233      29.61223245        6
Si       9.59897455       5.54197054      28.81523193        6
Si       7.67917964       4.43357643      32.78242161        5
Si      -0.00000000       0.00000000      31.97730657        5
Si       5.75938473       1.10839411      32.78242161        5
Si       1.91979491       3.32518233      31.97730657        5
Si       3.83958982       4.43357643      32.78242161        5
Si       7.67917964       6.65036465      31.97730657        5
Si       1.91979491       1.10839411      32.78242161        5
Si       5.75938473       3.32518233      31.97730657        5
Si       3.83958982       2.21678822      35.95072403        4
Si       7.67917964       4.43357643      35.15118820        4
Si       5.75938473       5.54197054      35.95072403        4
Si       5.75938473       1.10839411      35.15118820        4
Si       7.67917964       2.21678822      35.95072403        4
Si       3.83958982       4.43357643      35.15118820        4
Si       9.59897455       5.54197054      35.95072403        4
Si       1.91979491       1.10839411      35.15118820        4
Si      -0.00000000       0.00000000      39.11728129        3
Si       3.83958982       2.21678822      38.31584621        3
Si       1.91979491       3.32518233      39.11728129        3
Si       5.75938473       5.54197054      38.31584621        3
Si       3.83958982      -0.00000000      39.11728129        3
Si       7.67917964       2.21678822      38.31584621        3
Si       5.75938473       3.32518233      39.11728129        3
Si       9.59897455       5.54197054      38.31584621        3
Si       7.67917964       4.43357643      42.28909576        2
Si       0.00000000       0.00000000      41.48230940        2
Si       5.75938473       1.10839411      42.28909576        2
Si       1.91979491       3.32518233      41.48230940        2
Si       3.83958982       4.43357643      42.28909576        2
Si       3.83958982      -0.00000000      41.48230940        2
Si       1.91979491       1.10839411      42.28909576        2
Si       5.75938473       3.32518233      41.48230940        2
Si       3.83958982       2.21678822      45.47176581        1
Si       7.67917964       4.43357643      44.66673523        1
Si       5.75938473       5.54197054      45.47176581        1
Si       5.75938473       1.10839411      44.66673523        1
Si       7.67917964       2.21678822      45.47176581        1
Si       3.83958982       4.43357643      44.66673523        1
Si       9.59897455       5.54197054      45.47176581        1
Si       1.91979491       1.10839411      44.66673523        1
96
Lattice="5.43 0.0 0.0 0.0 5.43 0.0 0.0 0.0 87.8025" Properties=species:S:1:pos:R:3:tags:I:1 from_key=b18c2b72367496b0419101f9e1a97c1525f8d415f7b79b305ed389e46078a2d6 energy=-512.5875780967723 label_model=mpa-0 miller=100 config_type=slab-relaxed pbc="T T F"
Si       1.35750000       1.35750000      12.92209500       12
Si       2.71500000       2.71500000      14.29321199       12
Si       4.07250000       4.07250000      12.92209500       12
Si      -0.00000000       0.00000000      14.29321199       12
Si       1.35750000       4.07250000      15.67942559       12
Si       2.71499997      -0.00000003      11.50269461       12
Si       4.07250000       1.35750000      15.67942559       12
Si       0.00000003       2.71500003      11.50269461       12
Si       1.35750000       1.35750000      18.43638027       11
Si       2.71500000       2.71500000      19.81242338       11
Si       4.07250000       4.07250000      18.43638027       11
Si      -0.00000000       0.00000000      19.81242338       11
Si       1.35750000       4.07250000      21.18932180       11
Si       2.71500000      -0.00000000      17.06095650       11
Si       4.07250000       1.35750000      21.18932180       11
Si       0.00000000       2.71500000      17.06095650       11
Si       1.35750000       1.35750000      23.94267067       10
Si       2.71500000       2.71500000      25.31818560       10
Si       4.07250000       4.07250000      23.94267067       10
Si      -0.00000000       0.00000000      25.31818560       10
Si       1.35750000       4.07250000      26.69575620       10
Si       2.71500000      -0.00000000      22.56559861       10
Si       4.07250000       1.35750000      26.69575620       10
Si       0.00000000       2.71500000      22.56559861       10
Si       1.35750000       1.35750000      29.44753067        9
Si       2.71500000       2.71500000      30.82451159        9
Si       4.07250000       4.07250000      29.44753067        9
Si      -0.00000000       0.00000000      30.82451159        9
Si       1.35750000       4.07250000      32.20267112        9
Si       2.71500000      -0.00000000      28.07271741        9
Si       4.07250000       1.35750000      32.20267112        9
Si       0.00000000       2.71500000      28.07271741        9
Si       1.35750000       1.35750000      34.95425994        8
Si       2.71500000       2.71500000      36.32984647        8
Si       4.07250000       4.07250000      34.95425994        8
Si       0.00000000      -0.00000000      36.32984647        8
Si       1.35750000       4.07250000      37.70705155        8
Si       2.71500000      -0.00000000      33.57918196        8
Si       4.07250000       1.35750000      37.70705155        8
Si      -0.00000000       2.71500000      33.57918196        8
Si       1.35750000       1.35750000      40.46326114        7
Si       2.71500000       2.71500000      41.83961881        7
Si       4.07250000       4.07250000      40.46326114        7
Si       0.00000000      -0.00000000      41.83961881        7
Si       1.35750000       4.07250000      43.21427940        7
Si       2.71500000       0.00000000      39.08533940        7
Si       4.07250000       1.35750000      43.21427940        7
Si       0.00000000       2.71500000      39.08533940        7
Si       1.35750000       1.35750000      45.96288119        6
Si       2.71500000       2.71500000      47.33923886        6
Si       4.07250000       4.07250000      45.96288119        6
Si       0.00000000      -0.00000000      47.33923886        6
Si       1.35750000       4.07250000      48.71716060        6
Si       2.71500000      -0.00000000      44.58822060        6
Si       4.07250000       1.35750000      48.71716060        6
Si       0.00000000       2.71500000      44.58822060        6
Si       1.35750000       1.35750000      51.47265353        5
Si       2.71500000       2.71500000      52.84824006        5
Si       4.07250000       4.07250000      51.47265353        5
Si       0.00000000      -0.00000000      52.84824006        5
Si       1.35750000       4.07250000      54.22331804        5
Si       2.71500000      -0.00000000      50.09544845        5
Si       4.07250000       1.35750000      54.22331804        5
Si       0.00000000       2.71500000      50.09544845        5
Si       1.35750000       1.35750000      56.97798841        4
Si       2.71500000       2.71500000      58.35496933        4
Si       4.07250000       4.07250000      56.97798841        4
Si      -0.00000000      -0.00000000      58.35496933        4
Si       1.35750000       4.07250000      59.72978259        4
Si       2.71500000       0.00000000      55.59982888        4
Si       4.07250000       1.35750000      59.72978259        4
Si       0.00000000       2.71500000      55.59982888        4
Si       1.35750000       1.35750000      62.48431440        3
Si       2.71500000       2.71500000      63.85982933        3
Si       4.07250000       4.07250000      62.48431440        3
Si       0.00000000      -0.00000000      63.85982933        3
Si       1.35750000       4.07250000      65.23690139        3
Si       2.71500000       0.00000000      61.10674380        3
Si       4.07250000       1.35750000      65.23690139        3
Si       0.00000000       2.71500000      61.10674380        3
Si       1.35750000       1.35750000      67.99007662        2
Si       2.71500000       2.71500000      69.36611973        2
Si       4.07250000       4.07250000      67.99007662        2
Si       0.00000000      -0.00000000      69.36611973        2
Si       1.35750000       4.07250000      70.74154350        2
Si       2.71500000      -0.00000000      66.61317820        2
Si       4.07250000       1.35750000      70.74154350        2
Si      -0.00000000       2.71500000      66.61317820        2
Si       1.35750000       1.35750000      73.50928801        1
Si       2.71500000       2.71500000      74.88040500        1
Si       4.07250000       4.07250000      73.50928801        1
Si       0.00000000       0.00000000      74.88040500        1
Si       1.35750002       4.07250002      76.29980539        1
Si       2.71500000       0.00000000      72.12307441        1
Si       4.07249998       1.35749998      76.29980539        1
Si      -0.00000000       2.71500000      72.12307441        1
96
Lattice="7.679179643685906 0.0 0.0 0.0 5.43 0.0 0.0 0.0 68.15528295119397" Properties=species:S:1:pos:R:3:tags:I:1 from_key=f4d4d90b4fe0dfca39cb4b196b30c039c08bd014ed99faf5edb89d8bd5847fa1 energy=-512.7578506910262 label_model=mpa-0 miller=110 config_type=slab-relaxed pbc="T T F"
Si       7.67917964       4.06601199      13.67625687       12
Si       3.83958982       2.69085316      11.77262208       12
Si       1.91979491       1.38164684      11.77262208       12
Si       1.91979491       0.00648801      13.67625687       12
Si       5.75938473       1.38164684      11.77262208       12
Si       5.75938473       0.00648801      13.67625687       12
Si       3.83958982       4.06601199      13.67625687       12
Si      -0.00000000       2.69085316      11.77262208       12
Si       3.83958982       4.06745852      17.58295283       11
Si       7.67917964       2.72429456      15.63623104       11
Si       5.75938473       1.34820544      15.63623104       11
Si       5.75938473       0.00504148      17.58295283       11
Si       1.91979491       1.34820544      15.63623104       11
Si       1.91979491       0.00504148      17.58295283       11
Si       7.67917964       4.06745852      17.58295283       11
Si       3.83958982       2.72429456      15.63623104       11
Si       7.67917964       4.06671916      21.46515934       10
Si       3.83958982       2.71833692      19.52335288       10
Si       1.91979491       1.35416308      19.52335288       10
Si       1.91979491       0.00578084      21.46515934       10
Si       5.75938473       1.35416308      19.52335288       10
Si       5.75938473       0.00578084      21.46515934       10
Si       3.83958982       4.06671916      21.46515934       10
Si       7.67917964       2.71833692      19.52335288       10
Si       3.83958982       4.06817757      25.34337651        9
Si       7.67917964       2.71793527      23.40569426        9
Si       5.75938473       1.35456473      23.40569426        9
Si       5.75938473       0.00432243      25.34337651        9
Si       1.91979491       1.35456473      23.40569426        9
Si       1.91979491       0.00432243      25.34337651        9
Si       7.67917964       4.06817757      25.34337651        9
Si       3.83958982       2.71793527      23.40569426        9
Si      -0.00000000       4.06746856      29.22988274        8
Si       3.83958982       2.72066937      27.28608001        8
Si       1.91979491       1.35183063      27.28608001        8
Si       1.91979491       0.00503144      29.22988274        8
Si       5.75938473       1.35183063      27.28608001        8
Si       5.75938473       0.00503144      29.22988274        8
Si       3.83958982       4.06746856      29.22988274        8
Si       7.67917964       2.72066937      27.28608001        8
Si       3.83958982       4.06891346      33.10908433        7
Si      -0.00000000       2.71912107      31.17089149        7
Si       5.75938473       1.35337893      31.17089149        7
Si       5.75938473       0.00358654      33.10908433        7
Si       1.91979491       1.35337893      31.17089149        7
Si       1.91979491       0.00358654      33.10908433        7
Si       7.67917964       4.06891346      33.10908433        7
Si       3.83958982       2.71912107      31.17089149        7
Si       0.00000000       4.06837893      36.98439146        6
Si       3.83958982       2.71858654      35.04619862        6
Si       1.91979491       1.35391346      35.04619862        6
Si       1.91979491       0.00412107      36.98439146        6
Si       5.75938473       1.35391346      35.04619862        6
Si       5.75938473       0.00412107      36.98439146        6
Si       3.83958982       4.06837893      36.98439146        6
Si       7.67917964       2.71858654      35.04619862        6
Si       3.83958982       4.06683063      40.86920294        5
Si      -0.00000000       2.72003144      38.92540022        5
Si       5.75938473       1.35246856      38.92540022        5
Si       5.75938473       0.00566937      40.86920294        5
Si       1.91979491       1.35246856      38.92540022        5
Si       1.91979491       0.00566937      40.86920294        5
Si       7.67917964       4.06683063      40.86920294        5
Si       3.83958982       2.72003144      38.92540022        5
Si      -0.00000000       4.06956473      44.74958869        4
Si       3.83958982       2.71932243      42.81190644        4
Si       1.91979491       1.35317757      42.81190644        4
Si       1.91979491       0.00293527      44.74958869        4
Si       5.75938473       1.35317757      42.81190644        4
Si       5.75938473       0.00293527      44.74958869        4
Si       3.83958982       4.06956473      44.74958869        4
Si       7.67917964       2.71932243      42.81190644        4
Si       3.83958982       4.06916308      48.63193007        3
Si      -0.00000000       2.72078084      46.69012361        3
Si       5.75938473       1.35171916      46.69012361        3
Si       5.75938473       0.00333692      48.63193007        3
Si       1.91979491       1.35171916      46.69012361        3
Si       1.91979491       0.00333692      48.63193007        3
Si      -0.00000000       4.06916308      48.63193007        3
Si       3.83958982       2.72078084      46.69012361        3
Si      -0.00000000       4.06320544      52.51905191        2
Si       3.83958982       2.72004148      50.57233012        2
Si       1.91979491       1.35245852      50.57233012        2
Si       1.91979491       0.00929456      52.51905191        2
Si       5.75938473       1.35245852      50.57233012        2
Si       5.75938473       0.00929456      52.51905191        2
Si       3.83958982       4.06320544      52.51905191        2
Si       7.67917964       2.72004148      50.57233012        2
Si       3.83958982       4.09664684      56.38266087        1
Si       7.67917964       2.72148801      54.47902608        1
Si       5.75938473       1.35101199      54.47902608        1
Si       5.75938473      -0.02414684      56.38266087        1
Si       1.91979491       1.35101199      54.47902608        1
Si       1.91979491      -0.02414684      56.38266087        1
Si       7.67917964       4.09664684      56.38266087        1
Si       3.83958982       2.72148801      54.47902608        1
96
Lattice="7.679179643685906 0.0 0.0 3.8395898218429525 6.650364651656329 0.0 0.0 0.0 59.26888456912127" Properties=species:S:1:pos:R:3:tags:I:1 from_key=5cdb959b63da38003588c60f2d3b392a073cad7f3162b80f850fb0d6a2c32a88 energy=-512.4517814268826 label_model=mpa-0 miller=111 config_type=slab-relaxed pbc="T T F"
Si       0.00000000      -0.00000000      12.60214934       12
Si       3.83958982       2.21678822      11.79711876       12
Si       1.91979491       3.32518233      12.60214934       12
Si       5.75938473       5.54197054      11.79711876       12
Si       3.83958982      -0.00000000      12.60214934       12
Si       7.67917964       2.21678822      11.79711876       12
Si       5.75938473       3.32518233      12.60214934       12
Si       9.59897455       5.54197054      11.79711876       12
Si       7.67917964       4.43357643      15.78657517       11
Si       0.00000000       0.00000000      14.97978881       11
Si       5.75938473       1.10839411      15.78657517       11
Si       1.91979491       3.32518233      14.97978881       11
Si       3.83958982       4.43357643      15.78657517       11
Si       7.67917964       6.65036465      14.97978881       11
Si       1.91979491       1.10839411      15.78657517       11
Si       5.75938473       3.32518233      14.97978881       11
Si       3.83958982       2.21678822      18.95303836       10
Si       7.67917964       4.43357643      18.15160328       10
Si       5.75938473       5.54197054      18.95303836       10
Si       5.75938473       1.10839411      18.15160328       10
Si       7.67917964       2.21678822      18.95303836       10
Si       3.83958982       4.43357643      18.15160328       10
Si       9.59897455       5.54197054      18.95303836       10
Si       1.91979491       1.10839411      18.15160328       10
Si       0.00000000       0.00000000      22.11769637        9
Si       3.83958982       2.21678822      21.31816053        9
Si       1.91979491       3.32518233      22.11769637        9
Si       5.75938473       5.54197054      21.31816053        9
Si       3.83958982       0.00000000      22.11769637        9
Si       7.67917964       2.21678822      21.31816053        9
Si       5.75938473       3.32518233      22.11769637        9
Si       9.59897455       5.54197054      21.31816053        9
Si       7.67917964       4.43357643      25.29157800        8
Si       0.00000000       0.00000000      24.48646296        8
Si       5.75938473       1.10839411      25.29157800        8
Si       1.91979491       3.32518233      24.48646296        8
Si       3.83958982       4.43357643      25.29157800        8
Si       3.83958982      -0.00000000      24.48646296        8
Si       1.91979491       1.10839411      25.29157800        8
Si       5.75938473       3.32518233      24.48646296        8
Si       3.83958982       2.21678822      28.45365264        7
Si       7.67917964       4.43357643      27.65665212        7
Si       5.75938473       5.54197054      28.45365264        7
Si       5.75938473       1.10839411      27.65665212        7
Si       7.67917964       2.21678822      28.45365264        7
Si       3.83958982       4.43357643      27.65665212        7
Si       9.59897455       5.54197054      28.45365264        7
Si       1.91979491       1.10839411      27.65665212        7
Si      -0.00000000      -0.00000000      31.61223245        6
Si       3.83958982       2.21678822      30.81523193        6
Si       1.91979491       3.32518233      31.61223245        6
Si       5.75938473       5.54197054      30.81523193        6
Si       3.83958982       0.00000000      31.61223245        6
Si       7.67917964       2.21678822      30.81523193        6
Si       5.75938473       3.32518233      31.61223245        6
Si       9.59897455       5.54197054      30.81523193        6
Si       7.67917964       4.43357643      34.78242161        5
Si      -0.00000000       0.00000000      33.97730657        5
Si       5.75938473       1.10839411      34.78242161        5
Si       1.91979491       3.32518233      33.97730657        5
Si       3.83958982       4.43357643      34.78242161        5
Si       7.67917964       6.65036465      33.97730657        5
Si       1.91979491       1.10839411      34.78242161        5
Si       5.75938473       3.32518233      33.97730657        5
Si       3.83958982       2.21678822      37.95072403        4
Si       7.67917964       4.43357643      37.15118820        4
Si       5.75938473       5.54197054      37.95072403        4
Si       5.75938473       1.10839411      37.15118820        4
Si       7.67917964       2.21678822      37.95072403        4
Si       3.83958982       4.43357643      37.15118820        4
Si       9.59897455       5.54197054      37.95072403        4
Si       1.91979491       1.10839411      37.15118820        4
Si       0.00000000       0.00000000      41.11728129        3
Si       3.83958982       2.21678822      40.31584621        3
Si       1.91979491       3.32518233      41.11728129        3
Si       5.75938473       5.54197054      40.31584621        3
Si       3.83958982      -0.00000000      41.11728129        3
Si       7.67917964       2.21678822      40.31584621        3
Si       5.75938473       3.32518233      41.11728129        3
Si       9.59897455       5.54197054      40.31584621        3
Si       7.67917964       4.43357643      44.28909576        2
Si      -0.00000000      -0.00000000      43.48230940        2
Si       5.75938473       1.10839411      44.28909576        2
Si       1.91979491       3.32518233      43.48230940        2
Si       3.83958982       4.43357643      44.28909576        2
Si       3.83958982      -0.00000000      43.48230940        2
Si       1.91979491       1.10839411      44.28909576        2
Si       5.75938473       3.32518233      43.48230940        2
Si       3.83958982       2.21678822      47.47176581        1
Si       7.67917964       4.43357643      46.66673523        1
Si       5.75938473       5.54197054      47.47176581        1
Si       5.75938473       1.10839411      46.66673523        1
Si       7.67917964       2.21678822      47.47176581        1
Si       3.83958982       4.43357643      46.66673523        1
Si       9.59897455       5.54197054      47.47176581        1
Si       1.91979491       1.10839411      46.66673523        1
