8
Lattice="5.3214 0.0 0.0 0.0 5.3214 0.0 0.0 0.0 5.3214" Properties=species:S:1:pos:R:3:forces:R:3 config_type=bulk energy=-43.009605555339135 virial="7.865201275088132 4.469501430951935e-14 4.086512703235959e-14 4.469501430951935e-14 7.865201275088128 4.2659445995453836e-14 4.086512703235959e-14 4.2659445995453836e-14 7.865201275088156" label_model=mpa-0 structure_key=f4d153eaff63f97152c038d7bc1a1dfab323b846ed9f3a8fbc89e9ef1fd8577f pbc="T T T"
Si       0.00000000       0.00000000       0.00000000      -0.00000000      -0.00000000       0.00000000
Si       1.33035000       1.33035000       1.33035000      -0.00000000      -0.00000000      -0.00000000
Si       0.00000000       2.66070000       2.66070000      -0.00000000      -0.00000000      -0.00000000
Si       1.33035000       3.99105000       3.99105000       0.00000000       0.00000000       0.00000000
Si       2.66070000       0.00000000       2.66070000      -0.00000000      -0.00000000      -0.00000000
Si       3.99105000       1.33035000       3.99105000       0.00000000       0.00000000       0.00000000
Si       2.66070000       2.66070000       0.00000000      -0.00000000      -0.00000000      -0.00000000
Si       3.99105000       3.99105000       1.33035000       0.00000000       0.00000000       0.00000000
8
Lattice="5.345533333333333 0.0 0.0 0.0 5.345533333333333 0.0 0.0 0.0 5.345533333333333" Properties=species:S:1:pos:R:3:forces:R:3 config_type=bulk energy=-43.10654586531168 virial="6.427648412772016 -7.909555690341088e-15 -7.101506459899079e-15 -7.909555690341088e-15 6.427648412772005 -1.7111725418331987e-16 -7.101506459899079e-15 -1.7111725418331987e-16 6.427648412772006" label_model=mpa-0 structure_key=7bce6e97974cc91b63ea900971660f3df1be4bc38269e689db8e106ee275b7fd pbc="T T T"
Si       0.00000000       0.00000000       0.00000000       0.00000000       0.00000000       0.00000000
Si       1.33638333       1.33638333       1.33638333       0.00000000       0.00000000       0.00000000
Si       0.00000000       2.67276667       2.67276667       0.00000000       0.00000000       0.00000000
Si       1.33638333       4.00915000       4.00915000       0.00000000      -0.00000000      -0.00000000
Si       2.67276667       0.00000000       2.67276667      -0.00000000       0.00000000       0.00000000
Si       4.00915000       1.33638333       4.00915000      -0.00000000       0.00000000      -0.00000000
Si       2.67276667       2.67276667       0.00000000       0.00000000      -0.00000000      -0.00000000
Si       4.00915000       4.00915000       1.33638333      -0.00000000      -0.00000000       0.00000000
8
Lattice="5.369666666666666 0.0 0.0 0.0 5.369666666666666 0.0 0.0 0.0 5.369666666666666" Properties=species:S:1:pos:R:3:forces:R:3 config_type=bulk energy=-43.18406540821843 virial="5.0541498118764965 -3.442153763156069e-14 -3.3491556364612446e-14 -3.442153763156069e-14 5.054149811876491 -3.13187150314877e-14 -3.3491556364612446e-14 -3.13187150314877e-14 5.054149811876492" label_model=mpa-0 structure_key=b923242bbe27234f4eb585c26c5ee19570595ce09b4702ba9d5ce3956a14990f pbc="T T T"
Si       0.00000000       0.00000000       0.00000000       0.00000000      -0.00000000       0.00000000
Si       1.34241667       1.34241667       1.34241667       0.00000000       0.00000000       0.00000000
Si       0.00000000       2.68483333       2.68483333      -0.00000000       0.00000000      -0.00000000
Si       1.34241667       4.02725000       4.02725000       0.00000000      -0.00000000      -0.00000000
Si       2.68483333       0.00000000       2.68483333      -0.00000000      -0.00000000      -0.00000000
Si       4.02725000       1.34241667       4.02725000       0.00000000       0.00000000       0.00000000
Si       2.68483333       2.68483333       0.00000000      -0.00000000      -0.00000000      -0.00000000
Si       4.02725000       4.02725000       1.34241667       0.00000000      -0.00000000       0.00000000
8
Lattice="5.3938 0.0 0.0 0.0 5.3938 0.0 0.0 0.0 5.3938" Properties=species:S:1:pos:R:3:forces:R:3 config_type=bulk energy=-43.24314398712988 virial="3.7365923430116923 2.090770004803359e-14 1.0257524507753442e-14 2.090770004803359e-14 3.73659234301169 1.0829539215470133e-14 1.0257524507753442e-14 1.0829539215470133e-14 3.7365923430116874" label_model=mpa-0 structure_key=ca4c55ad10e0ee9020ccf7dcba62634c7fd38c6cdeb62179ca8ad86d8229fe65 pbc="T T T"
Si       0.00000000       0.00000000       0.00000000       0.00000000       0.00000000       0.00000000
Si       1.34845000       1.34845000       1.34845000       0.00000000      -0.00000000      -0.00000000
Si       0.00000000       2.69690000       2.69690000       0.00000000       0.00000000       0.00000000
Si       1.34845000       4.04535000       4.04535000       0.00000000      -0.00000000      -0.00000000
Si       2.69690000       0.00000000       2.69690000       0.00000000       0.00000000       0.00000000
Si       4.04535000       1.34845000       4.04535000      -0.00000000       0.00000000      -0.00000000
Si       2.69690000       2.69690000       0.00000000       0.00000000       0.00000000       0.00000000
Si       4.04535000       4.04535000       1.34845000      -0.00000000      -0.00000000       0.00000000
8
Lattice="5.417933333333333 0.0 0.0 0.0 5.417933333333333 0.0 0.0 0.0 5.417933333333333" Properties=species:S:1:pos:R:3:forces:R:3 config_type=bulk energy=-43.28464956045624 virial="2.4683681060689513 -2.458952822103716e-15 -9.035018031267109e-15 -2.458952822103716e-15 2.4683681060689513 9.747783684654314e-16 -9.035018031267109e-15 9.747783684654314e-16 2.4683681060689437" label_model=mpa-0 structure_key=bdd054e9a35d3daedd96670894a11f08ee6abd7913a79ed8496cb8950560eb9d pbc="T T T"
Si       0.00000000       0.00000000       0.00000000      -0.00000000      -0.00000000       0.00000000
Si       1.35448333       1.35448333       1.35448333      -0.00000000      -0.00000000      -0.00000000
Si       0.00000000       2.70896667       2.70896667      -0.00000000      -0.00000000      -0.00000000
Si       1.35448333       4.06345000       4.06345000      -0.00000000       0.00000000       0.00000000
Si       2.70896667       0.00000000       2.70896667       0.00000000      -0.00000000      -0.00000000
Si       4.06345000       1.35448333       4.06345000       0.00000000      -0.00000000       0.00000000
Si       2.70896667       2.70896667       0.00000000       0.00000000       0.00000000      -0.00000000
Si       4.06345000       4.06345000       1.35448333       0.00000000       0.00000000      -0.00000000
8
Lattice="5.4420666666666655 0.0 0.0 0.0 5.4420666666666655 0.0 0.0 0.0 5.4420666666666655" Properties=species:S:1:pos:R:3:forces:R:3 config_type=bulk energy=-43.30935970641007 virial="1.2441917212645799 -1.830102041517133e-14 -1.514245365514478e-15 -1.830102041517133e-14 1.2441917212645894 -6.447972753222893e-15 -1.514245365514478e-15 -6.447972753222893e-15 1.2441917212644433" label_model=mpa-0 structure_key=ae70c2b24355712d0749176ee5871c93bba3b14ec985fb43bce701deb60e0be5 pbc="T T T"
Si       0.00000000       0.00000000       0.00000000       0.00000000      -0.00000000       0.00000000
Si       1.36051667       1.36051667       1.36051667      -0.00000000       0.00000000      -0.00000000
Si       0.00000000       2.72103333       2.72103333       0.00000000      -0.00000000       0.00000000
Si       1.36051667       4.08155000       4.08155000      -0.00000000      -0.00000000      -0.00000000
Si       2.72103333       0.00000000       2.72103333       0.00000000       0.00000000       0.00000000
Si       4.08155000       1.36051667       4.08155000      -0.00000000       0.00000000       0.00000000
Si       2.72103333       2.72103333       0.00000000       0.00000000      -0.00000000       0.00000000
Si       4.08155000       4.08155000       1.36051667      -0.00000000      -0.00000000      -0.00000000
8
Lattice="5.4662 0.0 0.0 0.0 5.4662 0.0 0.0 0.0 5.4662" Properties=species:S:1:pos:R:3:forces:R:3 config_type=bulk energy=-43.31797722528195 virial="0.059526362308806785 6.531875680541981e-15 -9.642100576707314e-15 6.531875680541981e-15 0.05952636230881564 -1.538034798244442e-16 -9.642100576707314e-15 -1.538034798244442e-16 0.05952636230881121" label_model=mpa-0 structure_key=9d98f3daec99f7a06a3fe61ba6f2fb1be21a18200eacb9b569d747bde5f6df4b pbc="T T T"
Si       0.00000000       0.00000000       0.00000000      -0.00000000      -0.00000000      -0.00000000
Si       1.36655000       1.36655000       1.36655000      -0.00000000      -0.00000000       0.00000000
Si       0.00000000       2.73310000       2.73310000      -0.00000000       0.00000000       0.00000000
Si       1.36655000       4.09965000       4.09965000      -0.00000000       0.00000000       0.00000000
Si       2.73310000       0.00000000       2.73310000       0.00000000      -0.00000000       0.00000000
Si       4.09965000       1.36655000       4.09965000       0.00000000      -0.00000000       0.00000000
Si       2.73310000       2.73310000       0.00000000      -0.00000000       0.00000000      -0.00000000
Si       4.09965000       4.09965000       1.36655000       0.00000000       0.00000000      -0.00000000
8
Lattice="5.490333333333333 0.0 0.0 0.0 5.490333333333333 0.0 0.0 0.0 5.490333333333333" Properties=species:S:1:pos:R:3:forces:R:3 config_type=bulk energy=-43.311136895245 virial="-1.0900868645791673 2.4422749954187205e-14 1.7190693372082243e-14 2.4422749954187205e-14 -1.090086864579153 -1.6929859884996103e-15 1.7190693372082243e-14 -1.6929859884996103e-15 -1.0900868645791282" label_model=mpa-0 structure_key=3aad3d23ea0a8ba66a2fcd633f44e1adc8cdfaadf85db8252eeccb70799f81e2 pbc="T T T"
Si       0.00000000       0.00000000       0.00000000      -0.00000000       0.00000000      -0.00000000
Si       1.37258333       1.37258333       1.37258333      -0.00000000      -0.00000000      -0.00000000
Si       0.00000000       2.74516667       2.74516667       0.00000000       0.00000000       0.00000000
Si       1.37258333       4.11775000       4.11775000      -0.00000000      -0.00000000      -0.00000000
Si       2.74516667       0.00000000       2.74516667       0.00000000       0.00000000       0.00000000
Si       4.11775000       1.37258333       4.11775000      -0.00000000      -0.00000000      -0.00000000
Si       2.74516667       2.74516667       0.00000000       0.00000000       0.00000000      -0.00000000
Si       4.11775000       4.11775000       1.37258333      -0.00000000      -0.00000000       0.00000000
8
Lattice="5.514466666666666 0.0 0.0 0.0 5.514466666666666 0.0 0.0 0.0 5.514466666666666" Properties=species:S:1:pos:R:3:forces:R:3 config_type=bulk energy=-43.28940487810258 virial="-2.208907691816025 -1.674501119841078e-15 -1.3388803915426671e-15 -1.674501119841078e-15 -2.208907691816024 1.5361177187470642e-16 -1.3388803915426671e-15 1.5361177187470642e-16 -2.208907691816023" label_model=mpa-0 structure_key=81afb44ba3c668e142167636a88e96e9502b408522fd0291de40ec0e0428be09 pbc="T T T"
Si       0.00000000       0.00000000       0.00000000      -0.00000000      -0.00000000      -0.00000000
Si       1.37861667       1.37861667       1.37861667       0.00000000       0.00000000      -0.00000000
Si       0.00000000       2.75723333       2.75723333      -0.00000000      -0.00000000      -0.00000000
Si       1.37861667       4.13585000       4.13585000       0.00000000       0.00000000       0.00000000
Si       2.75723333       0.00000000       2.75723333      -0.00000000      -0.00000000      -0.00000000
Si       4.13585000       1.37861667       4.13585000       0.00000000      -0.00000000       0.00000000
Si       2.75723333       2.75723333       0.00000000      -0.00000000      -0.00000000      -0.00000000
Si       4.13585000       4.13585000       1.37861667       0.00000000       0.00000000      -0.00000000
8
Lattice="5.5386 0.0 0.0 0.0 5.5386 0.0 0.0 0.0 5.5386" Properties=species:S:1:pos:R:3:forces:R:3 config_type=bulk energy=-43.25331990924552 virial="-3.2959791982655844 2.8927009715749352e-18 4.317038424100416e-16 2.8927009715749352e-18 -3.295979198265582 7.188268346159031e-16 4.317038424100416e-16 7.188268346159031e-16 -3.2959791982655844" label_model=mpa-0 structure_key=8cd4e235ec04542a34e6c55124a0f708632c5ebdbf608a392426fecec073fe7a pbc="T T T"
Si       0.00000000       0.00000000       0.00000000       0.00000000       0.00000000       0.00000000
Si       1.38465000       1.38465000       1.38465000       0.00000000       0.00000000       0.00000000
Si       0.00000000       2.76930000       2.76930000       0.00000000       0.00000000       0.00000000
Si       1.38465000       4.15395000       4.15395000       0.00000000      -0.00000000      -0.00000000
Si       2.76930000       0.00000000       2.76930000       0.00000000       0.00000000       0.00000000
Si       4.15395000       1.38465000       4.15395000      -0.00000000       0.00000000      -0.00000000
Si       2.76930000       2.76930000       0.00000000      -0.00000000       0.00000000       0.00000000
Si       4.15395000       4.15395000       1.38465000      -0.00000000      -0.00000000       0.00000000
8
Lattice="5.3214 0.0 0.0 0.0 5.3214 0.0 0.0 0.0 5.3214" Properties=species:S:1:pos:R:3:forces:R:3 config_type=bulk energy=-42.932463080112704 virial="8.062586764012318 0.4006084512102666 -0.44489622777008064 0.4006084512102666 8.013169682822376 -0.5310731597127242 -0.44489622777008064 -0.5310731597127242 8.126775475162358" label_model=mpa-0 structure_key=23b3c73aebf5213c5812bc341793e74f926db95c2cd61169318ca603963185dc pbc="T T T"
Si      -0.00863437      -0.02785748       0.00623141      -0.03443763       0.25416280       0.10135046
Si       1.33008530       1.35934415       1.33631305      -0.10083301      -0.31948699      -0.40610103
Si      -0.01659792       2.62877683       2.67296876       0.53300063       0.29445091       0.03286287
Si       1.32399806       3.98957007       3.97887738       0.06321518      -0.25667613       0.30476649
Si       2.62070254       0.01816481       2.67035960       0.45770303      -0.25271901      -0.27171090
Si       3.99548757       1.34363058       3.96613386      -0.17270009      -0.66289537       0.49742806
Si       2.70007758       2.65432702       0.00719536      -0.42541603       0.12792684      -0.23694382
Si       4.00597342       3.93655282       1.36385758      -0.32053207       0.81523695      -0.02165212
8
Lattice="5.345533333333333 0.0 0.0 0.0 5.345533333333333 0.0 0.0 0.0 5.345533333333333" Properties=species:S:1:pos:R:3:forces:R:3 config_type=bulk energy=-43.053935500592914 virial="6.553539555813409 0.4147344184762132 0.09525545235104291 0.4147344184762132 6.621797428290144 0.9629029802931991 0.09525545235104291 0.9629029802931991 6.568681974227725" label_model=mpa-0 structure_key=baa151693a8f10dd30be7c5b1d55844cd946334f96586de79ed4a38cd7f45e47 pbc="T T T"
Si       0.00818480       0.00612626      -0.01970961      -0.32201901       0.18910065       0.49528765
Si       1.33809337       1.32713668       1.34814742       0.00769007       0.21796519      -0.12540707
Si       0.01673065       2.66728132       2.71146159      -0.36360794       0.04951371      -0.61848311
Si       1.28750518       4.03783814       4.00864109       0.74446037      -0.25844806       0.01417041
Si       2.67128574       0.00660115       2.68174030      -0.02868154      -0.22851086      -0.11009174
Si       4.00933366       1.32597598       4.00097663      -0.13196643       0.22178642       0.20345357
Si       2.67054344       2.68793475      -0.00128277      -0.23052545      -0.13189912      -0.17934616
Si       3.99653853       4.01402190       1.31937910       0.32464995      -0.05950794       0.32041645
8
Lattice="5.369666666666666 0.0 0.0 0.0 5.369666666666666 0.0 0.0 0.0 5.369666666666666" Properties=species:S:1:pos:R:3:forces:R:3 config_type=bulk energy=-43.01994181323516 virial="5.616231856028624 0.7540731451682954 0.8176149425772671 0.7540731451682954 5.568186368714418 -1.5834249271843703 0.8176149425772671 -1.5834249271843703 5.489610478810891" label_model=mpa-0 structure_key=42c21e325291282a59da0a8e6fa3c0629fbc272e3173de3d747cab4627938c72 pbc="T T T"
Si      -0.02279584       0.01745016      -0.03373523       0.95571664      -0.49612980       0.60367648
Si       1.36228614       1.38693852       1.32100693      -0.45183483      -0.79591980       0.51135701
Si       0.00061911       2.71038803       2.67320403      -0.40622647      -0.62139534      -0.05994180
Si       1.33160019       4.00507721       3.98104305      -0.13585010       0.27205942       0.60370110
Si       2.66708797      -0.01390002       2.72539773       0.42517057       0.28351817      -0.70326097
Si       4.04870750       1.30468058       4.07526245      -0.71674443       0.97789118      -0.74726889
Si       2.63901491       2.70067733       0.01664700       0.67044558       0.04382129      -0.60560945
Si       4.04055557       4.01847687       1.30221279      -0.34067695       0.33615488       0.39734652
8
Lattice="5.3938 0.0 0.0 0.0 5.3938 0.0 0.0 0.0 5.3938" Properties=species:S:1:pos:R:3:forces:R:3 config_type=bulk energy=-43.179695222488846 virial="3.9014705431743377 0.10315018282288281 0.07995908668939877 0.10315018282288281 3.9148081789008695 -0.3711539871707545 0.07995908668939877 -0.3711539871707545 3.889175164663762" label_model=mpa-0 structure_key=e9c69a83a1b0b7dcff2c68b02e032202ebf8ac5d61c219eb67fd98430f8b20e2 pbc="T T T"
Si      -0.00832629      -0.01278042       0.00561206      -0.14772807       0.27469756       0.02812822
Si       1.36596008       1.38855379       1.30981061      -0.45371176      -0.51053233       0.48520165
Si      -0.00325717       2.71997565       2.67795890       0.10952309      -0.12315230       0.25024369
Si       1.36331089       4.05459066       4.08365258      -0.36223971       0.16376754      -0.62298829
Si       2.69424880       0.01366197       2.69617220      -0.17882889      -0.08633859      -0.17086674
Si       4.02296286       1.35095660       4.02997911       0.29866174       0.13279656       0.15073992
Si       2.65959148       2.71082940      -0.00380540       0.59771583      -0.16150097      -0.24455102
Si       4.01344685       4.02285805       1.33639500       0.13660777       0.31026253       0.12409257
8
Lattice="5.417933333333333 0.0 0.0 0.0 5.417933333333333 0.0 0.0 0.0 5.417933333333333" Properties=species:S:1:pos:R:3:forces:R:3 config_type=bulk energy=-43.23675420160176 virial="2.592316411090406 0.011658661320668 0.24365869078126096 0.011658661320668 2.6128048689682766 0.09243780134895187 0.24365869078126096 0.09243780134895187 2.615778714941742" label_model=mpa-0 structure_key=dbe994156e415b22835b627f507b55fa216d3dde6ab4cae25cd556f44e4b7a07 pbc="T T T"
Si       0.02807120      -0.02246944       0.00362407      -0.19681069       0.22741198      -0.02928310
Si       1.36191703       1.36111239       1.36681380      -0.07753215      -0.07731180      -0.07651471
Si      -0.01439084       2.71682613       2.67951492       0.10656618      -0.16523250       0.55400154
Si       1.38710780       4.07745434       4.05923598      -0.33964870      -0.30695718      -0.09098184
Si       2.71541137       0.01716521       2.73315909      -0.01598945      -0.23552761      -0.45633925
Si       4.02717738       1.33141939       4.07204318       0.63606605       0.33677702       0.15821544
Si       2.70686479       2.71559154       0.01061098      -0.00094312      -0.09325619      -0.06761019
Si       4.06804809       4.05186614       1.35115757      -0.11170811       0.31409628       0.00851210
8
Lattice="5.4420666666666655 0.0 0.0 0.0 5.4420666666666655 0.0 0.0 0.0 5.4420666666666655" Properties=species:S:1:pos:R:3:forces:R:3 config_type=bulk energy=-43.284737243787376 virial="1.2495932108683645 -0.17188125974857207 -0.18693107752620075 -0.17188125974857207 1.2728231016688938 -0.07464554360308606 -0.18693107752620075 -0.07464554360308606 1.2870624109770223" label_model=mpa-0 structure_key=db0b8657ceaf4d13f94b1f212a7795bce4cd580556777faccce937a65250759c pbc="T T T"
Si       0.03035422      -0.02059767       0.00804995      -0.27729695      -0.00595871      -0.00158238
Si       1.33375570       1.34561075       1.37477857       0.12563464       0.19366597       0.07489136
Si      -0.03583756       2.71347670       2.74297359       0.31046753       0.23177097      -0.17229732
Si       1.37612936       4.06998484       4.09482339      -0.04791477      -0.00218748      -0.24995065
Si       2.72860272       0.02710098       2.73466619      -0.05753902      -0.14324383       0.05828135
Si       4.10195381       1.36969484       4.10333381      -0.11623315      -0.27362920       0.10404117
Si       2.70655360       2.69469768      -0.00449869       0.10061994       0.13674909       0.30935133
Si       4.06814464       4.09382822       1.37326394      -0.03773822      -0.13716681      -0.12273485
8
Lattice="5.4662 0.0 0.0 0.0 5.4662 0.0 0.0 0.0 5.4662" Properties=species:S:1:pos:R:3:forces:R:3 config_type=bulk energy=-43.28696732894034 virial="0.1263257567854095 0.13241744862669824 -0.3853460412165946 0.13241744862669824 0.09953833743140253 0.15015800875020907 -0.3853460412165946 0.15015800875020907 0.10653509813314947" label_model=mpa-0 structure_key=36f91a49fd4f67d1736551030e40e7b42a13528b5fb8aca6dfe3758eba3c91eb pbc="T T T"
Si       0.01921965      -0.01854170      -0.02751153      -0.06588281       0.14133605       0.27752412
Si       1.37613372       1.38937451       1.35922847      -0.09711304      -0.28909092       0.03145590
Si      -0.00358072       2.71802816       2.74969268      -0.07511402       0.07445108      -0.20920576
Si       1.37569565       4.07967537       4.08685726      -0.02439602      -0.07279701       0.13719977
Si       2.71842000      -0.03550677       2.72781221       0.04170596       0.47865802       0.04859944
Si       4.10329607       1.35680221       4.10576352      -0.15254775      -0.09492559      -0.01759027
Si       2.75435892       2.75245274       0.02368486      -0.09019139      -0.20021669      -0.26829996
Si       4.08147893       4.10972182       1.37333344       0.46353907      -0.03741494       0.00031676
8
Lattice="5.490333333333333 0.0 0.0 0.0 5.490333333333333 0.0 0.0 0.0 5.490333333333333" Properties=species:S:1:pos:R:3:forces:R:3 config_type=bulk energy=-43.261942538018246 virial="-0.9859530015164667 -0.32998090698712806 -0.3162783476017928 -0.32998090698712806 -1.0092354163916653 -0.14471903335284483 -0.3162783476017928 -0.14471903335284483 -0.9888451037849467" label_model=mpa-0 structure_key=36d88a01befac6f10bf3bd1f7f3e038f729e789362c37ed6e6b8e7d327598f82 pbc="T T T"
Si       0.00735418      -0.00184435      -0.00890291      -0.10301286       0.06084480      -0.00323137
Si       1.40235121       1.37541002       1.33629094      -0.28355889      -0.14785393       0.31071421
Si      -0.03236493       2.74383053       2.70416606       0.44585014      -0.08047561       0.25937698
Si       1.36987183       4.11285916       4.12418416      -0.07493549      -0.06279408      -0.31167255
Si       2.75055896      -0.00905742       2.73488897       0.03260903       0.04520843       0.06742731
Si       4.10406984       1.41076434       4.13200741       0.26133769      -0.54232032      -0.39825586
Si       2.75337165       2.72191259      -0.02143781      -0.19559496       0.36981069       0.09200475
Si       4.11651717       4.08701148       1.34813205      -0.08269467       0.35758002      -0.01636346
8
Lattice="5.514466666666666 0.0 0.0 0.0 5.514466666666666 0.0 0.0 0.0 5.514466666666666" Properties=species:S:1:pos:R:3:forces:R:3 config_type=bulk energy=-43.244101271817996 virial="-2.1546143159958033 -0.11035609578192684 0.5015655004757822 -0.11035609578192684 -2.1178674919559253 -0.7669356203610749 0.5015655004757822 -0.7669356203610749 -2.1222646718264975" label_model=mpa-0 structure_key=cb2deedb88a190c046f2a7dddf7c74773436bfb7d9c6beff4aec43394347ad45 pbc="T T T"
Si      -0.00069747       0.00532018       0.00459807       0.20061496      -0.09852274      -0.05214780
Si       1.39859312       1.36550066       1.40087538      -0.24584458       0.26706303      -0.34503737
Si      -0.00462450       2.78005363       2.72412746       0.27226907      -0.25342584       0.33626214
Si       1.39617154       4.14808947       4.11435384      -0.17914038      -0.13658061       0.25234530
Si       2.72985471       0.01086564       2.74771247       0.56952093      -0.17332131       0.10974755
Si       4.17024219       1.37028438       4.12204469      -0.29510281       0.15708784       0.02322520
Si       2.77173899       2.76006007       0.01272101      -0.00757263      -0.14212664      -0.24559023
Si       4.15638730       4.11626002       1.37666568      -0.31474456       0.37982627      -0.07880480
8
Lattice="5.5386 0.0 0.0 0.0 5.5386 0.0 0.0 0.0 5.5386" Properties=species:S:1:pos:R:3:forces:R:3 config_type=bulk energy=-43.20795750052387 virial="-3.2898096972747544 0.4919920117735421 0.18747953169871004 0.4919920117735421 -3.1918157319921945 0.7282274451431984 0.18747953169871004 0.7282274451431984 -3.2577977422732745" label_model=mpa-0 structure_key=4a43bd086328b3e00593871395b33728589c52ca91eecb29b5c2e5e21f7e7cec pbc="T T T"
Si       0.00628957      -0.00670044       0.01206392      -0.06095987       0.01226087      -0.38201953
Si       1.38448131       1.36101099       1.39704517       0.26560293      -0.06887039      -0.06272683
Si       0.01997589       2.74869168       2.74154022      -0.28165281       0.00823721       0.12075280
Si       1.38370242       4.11880371       4.13807988       0.06811001       0.20344905       0.14467005
Si       2.81785440      -0.02593779       2.78138304      -0.50834704      -0.18157599      -0.28813082
Si       4.11466811       1.36777209       4.11733756       0.57037770       0.17433016       0.39443698
Si       2.77518794       2.75857567       0.00557534      -0.17865594      -0.13916389      -0.14382257
Si       4.16117675       4.13747436       1.35075528       0.12552502      -0.00866703       0.21683992
8
Lattice="5.3214 0.0 0.0 0.0 5.3214 0.0 0.0 0.0 5.3214" Properties=species:S:1:pos:R:3:forces:R:3 config_type=bulk energy=-42.692113425210465 virial="8.599682418774941 0.8274110809153148 -0.9589930763530113 0.8274110809153148 8.39812859333348 -1.2323495121164252 -0.9589930763530113 -1.2323495121164252 8.844121314370552" label_model=mpa-0 structure_key=d4a61a39e32254e0132a304a111137c9589c6557c5f4628d57f184356fe41fc2 pbc="T T T"
Si      -0.01726874      -0.05571496       0.01246283      -0.06186342       0.50485570       0.19623431
Si       1.32982060       1.38833831       1.34227611      -0.18318659      -0.61911320      -0.81622824
Si      -0.03319584       2.59685366       2.68523751       1.25654410       0.63879481       0.02939285
Si       1.31764612       3.98809013       3.96670476       0.09516700      -0.52909600       0.59841055
Si       2.58070508       0.03632963       2.68001920       0.91871287      -0.47142867      -0.49245074
Si       3.99992514       1.35691117       3.94121773      -0.49486135      -1.44732112       1.09404125
Si       2.73945516       2.64795404       0.01439072      -0.86327568       0.22463645      -0.48048690
Si       4.02089684       3.88205564       1.39736515      -0.66723693       1.69867203      -0.12891308
8
Lattice="5.345533333333333 0.0 0.0 0.0 5.345533333333333 0.0 0.0 0.0 5.345533333333333" Properties=species:S:1:pos:R:3:forces:R:3 config_type=bulk energy=-42.89015701895758 virial="6.878027044439263 0.7775369927742448 0.17073125119238214 0.7775369927742448 7.18120847880421 2.130816580348903 0.17073125119238214 2.130816580348903 6.956224978285781" label_model=mpa-0 structure_key=1574f801f4a8f6a6064f7693765634acc73d63949e3d0b8bceae331ffcb6d882 pbc="T T T"
Si       0.01636961       0.01225252      -0.03941922      -0.72931943       0.48416099       1.11290950
Si       1.33980341       1.31789004       1.35991151       0.00590777       0.44634912      -0.25672610
Si       0.03346130       2.66179598       2.75015651      -0.72111270       0.01320201      -1.25884690
Si       1.23862703       4.06652629       4.00813217       1.61374741      -0.55646681      -0.06674316
Si       2.66980481       0.01320230       2.69071394      -0.07334076      -0.48890946      -0.22095477
Si       4.00951732       1.31556862       3.99280327      -0.26302835       0.45533143       0.41842222
Si       2.66832022       2.70310283      -0.00256553      -0.48405892      -0.28779350      -0.37340322
Si       3.98392706       4.01889380       1.30237487       0.65120498      -0.06587379       0.64534243
8
Lattice="5.369666666666666 0.0 0.0 0.0 5.369666666666666 0.0 0.0 0.0 5.369666666666666" Properties=species:S:1:pos:R:3:forces:R:3 config_type=bulk energy=-42.44687119535346 virial="7.132025356017438 1.58648400828709 1.958845902037831 1.58648400828709 6.96303360350904 -3.9231599718933006 1.958845902037831 -3.9231599718933006 6.554806394848077" label_model=mpa-0 structure_key=1a46a9825f7c75f5a39e2ca2236aea1f297b7508cd45132833031316a5ea2665 pbc="T T T"
Si      -0.04559168       0.03490032      -0.06747047       2.39648428      -1.43550644       1.58185499
Si       1.38215561       1.43146037       1.29959719      -1.13966165      -1.85104433       1.28622224
Si       0.00123822       2.73594273       2.66157472      -0.90659053      -1.37020078      -0.22345463
Si       1.32078371       3.98290441       3.93483609      -0.23323159       0.54622013       1.39587204
Si       2.64934260      -0.02780004       2.76596213       0.97300710       0.71208604      -1.47643732
Si       4.07016500       1.26694449       4.12327490      -1.95705240       2.41302433      -1.90695046
Si       2.59319650       2.71652133       0.03329400       1.54751238       0.33889617      -1.44432875
Si       4.05386114       4.00970374       1.26200892      -0.68046759       0.64652488       0.78722188
8
Lattice="5.3938 0.0 0.0 0.0 5.3938 0.0 0.0 0.0 5.3938" Properties=species:S:1:pos:R:3:forces:R:3 config_type=bulk energy=-42.97153949914049 virial="4.387183659067637 0.25359333291593983 0.1496373827320187 0.25359333291593983 4.473630267186309 -1.008906648067452 0.1496373827320187 -1.008906648067452 4.350994644505242" label_model=mpa-0 structure_key=178df4e7df5ac15612150b3b8d5616c7cf8253497f253322daf4fa988fd282c4 pbc="T T T"
Si      -0.01665257      -0.02556085       0.01122412      -0.30101383       0.56816300       0.06838652
Si       1.38347015       1.42865759       1.27117123      -1.06441401      -1.19331491       1.13225223
Si      -0.00651433       2.74305130       2.65901780       0.23398972      -0.25691664       0.50319220
Si       1.37817178       4.06383133       4.12195516      -0.79588813       0.44698912      -1.36109580
Si       2.69159759       0.02732393       2.69544441      -0.37801957      -0.20829310      -0.37624167
Si       4.00057573       1.35346320       4.01460822       0.61303871       0.30454539       0.33793155
Si       2.62228296       2.72475880      -0.00761080       1.41213953      -0.30158750      -0.56927584
Si       3.98154370       4.00036610       1.32434000       0.28016758       0.64041465       0.26485080
8
Lattice="5.417933333333333 0.0 0.0 0.0 5.417933333333333 0.0 0.0 0.0 5.417933333333333" Properties=species:S:1:pos:R:3:forces:R:3 config_type=bulk energy=-43.08550035758732 virial="2.9545655696753816 0.1215183831178374 0.6333172708324437 0.1215183831178374 3.0361676296111413 0.2370619345321847 0.6333172708324437 0.2370619345321847 3.05557798067259" label_model=mpa-0 structure_key=2db0d02798d67870dc78cea0b8feba7df712c60f5c0e9bf3fb4fa57e19137088 pbc="T T T"
Si       0.05614241      -0.04493888       0.00724814      -0.41081588       0.45974171      -0.04207138
Si       1.36935073       1.36774145       1.37914426      -0.15156318      -0.16716075      -0.15517669
Si      -0.02878168       2.72468560       2.65006317       0.26110895      -0.37828385       1.14661699
Si       1.41973226       4.09145868       4.05502196      -0.69626801      -0.64161965      -0.16500643
Si       2.72185608       0.03433042       2.75735152      -0.10640835      -0.53819878      -1.05475284
Si       3.99090475       1.30835545       4.08063637       1.36893515       0.77023850       0.43618425
Si       2.70476292       2.72221641       0.02122197      -0.00655320      -0.19413104      -0.14358829
Si       4.07264619       4.04028229       1.34783180      -0.25843548       0.68941388      -0.02220562
8
Lattice="5.4420666666666655 0.0 0.0 0.0 5.4420666666666655 0.0 0.0 0.0 5.4420666666666655" Properties=species:S:1:pos:R:3:forces:R:3 config_type=bulk energy=-43.20942277047201 virial="1.2615303807048546 -0.3296642541639835 -0.4131730310058225 -0.3296642541639835 1.369188572938447 -0.18396251331679103 -0.4131730310058225 -0.18396251331679103 1.4248031467819404" label_model=mpa-0 structure_key=c4175cae6981c6efd098243a71fac826149ba356f8f81f63567b4d10cf3c7a49 pbc="T T T"
Si       0.06070845      -0.04119534       0.01609991      -0.57332452      -0.01926943      -0.00518052
Si       1.30699474       1.33070483       1.38904048       0.25893647       0.39705579       0.16688517
Si      -0.07167512       2.70592007       2.76491384       0.65158549       0.50773085      -0.39348517
Si       1.39174205       4.05841968       4.10809679      -0.09893841       0.00047336      -0.51534008
Si       2.73617211       0.05420196       2.74829905      -0.11384387      -0.28094570       0.11393245
Si       4.12235761       1.37887301       4.12511762      -0.25546760      -0.59328058       0.25502320
Si       2.69207387       2.66836202      -0.00899738       0.19248115       0.25788163       0.62135470
Si       4.05473928       4.10610643       1.38601121      -0.06142871      -0.26964591      -0.24318976
8
Lattice="5.4662 0.0 0.0 0.0 5.4662 0.0 0.0 0.0 5.4662" Properties=species:S:1:pos:R:3:forces:R:3 config_type=bulk energy=-43.19046964658813 virial="0.33180554565987175 0.32576711020492466 -0.8102105792214516 0.32576711020492466 0.22747145983319425 0.3618556701303356 -0.8102105792214516 0.3618556701303356 0.2545513336524948" label_model=mpa-0 structure_key=0180bad232eae80dbf77e80b3204b12561bf1700ac75a8327c91f4fee7215925 pbc="T T T"
Si       0.03843930      -0.03708340      -0.05502306      -0.14453699       0.29349848       0.56461464
Si       1.38571743       1.41219901       1.35190694      -0.19681536      -0.59114132       0.07183833
Si      -0.00716144       2.70295633       2.76628536      -0.14900650       0.15283643      -0.42903314
Si       1.38484129       4.05970073       4.07406452      -0.05152173      -0.17614571       0.29773525
Si       2.70374000      -0.07101354       2.72252441       0.06173806       1.01327315       0.10451474
Si       4.10694213       1.34705443       4.11187704      -0.31124620      -0.19316979      -0.02473181
Si       2.77561784       2.77180547       0.04736972      -0.21170308      -0.43281800      -0.58352954
Si       4.06330786       4.11979365       1.38011689       1.00309180      -0.06633325      -0.00140848
8
Lattice="5.490333333333333 0.0 0.0 0.0 5.490333333333333 0.0 0.0 0.0 5.490333333333333" Properties=species:S:1:pos:R:3:forces:R:3 config_type=bulk energy=-43.101061689459094 virial="-0.6276242983232228 -0.8477083927677276 -0.7942836005605323 -0.8477083927677276 -0.7445737099646363 -0.26541146161678075 -0.7942836005605323 -0.26541146161678075 -0.6411475442995833" label_model=mpa-0 structure_key=6adf9e1a26b965cdea7c7f547f7d79546d7504c9e16fdb00839f918d98439a2b pbc="T T T"
Si       0.01470837      -0.00368871      -0.01780582      -0.22488314       0.13676213       0.00176214
Si       1.43211908       1.37823672       1.29999855      -0.60842852      -0.33536669       0.66677244
Si      -0.06472986       2.74249440       2.66316545       0.95145337      -0.22434179       0.58425647
Si       1.36716033       4.10796832       4.13061833      -0.13957560      -0.13724153      -0.63526256
Si       2.75595124      -0.01811484       2.72461128       0.06788837       0.10076784       0.13877293
Si       4.09038968       1.44894535       4.14626482       0.67683370      -1.21690907      -0.93785615
Si       2.76157664       2.69865852      -0.04287561      -0.50648504       0.89451840       0.26809433
Si       4.11528434       4.05627296       1.32368078      -0.21680313       0.78181070      -0.08653959
8
Lattice="5.514466666666666 0.0 0.0 0.0 5.514466666666666 0.0 0.0 0.0 5.514466666666666" Properties=species:S:1:pos:R:3:forces:R:3 config_type=bulk energy=-43.095231885048214 virial="-1.957003955190475 -0.36835690230710405 1.2377199493919724 -0.36835690230710405 -1.801365251319298 -1.849185448609012 1.2377199493919724 -1.849185448609012 -1.8189286962892912" label_model=mpa-0 structure_key=036ae0a343d0b2f61fb1e2dfc70418c60c2af2e82804187047d8cdbf8fe476a7 pbc="T T T"
Si      -0.00139495       0.01064035       0.00919614       0.42332039      -0.20945805      -0.08907106
Si       1.41856957       1.35238465       1.42313409      -0.59664581       0.64532004      -0.79122032
Si      -0.00924899       2.80287393       2.69102159       0.64888755      -0.60124453       0.76701925
Si       1.41372642       4.16032893       4.09285769      -0.40141839      -0.30908292       0.54008141
Si       2.70247608       0.02173128       2.73819161       1.28385697      -0.41429297       0.29144526
Si       4.20463439       1.36195209       4.10823939      -0.61679420       0.32715587       0.01864383
Si       2.78624464       2.76288682       0.02544203      -0.02288338      -0.30427504      -0.50493590
Si       4.17692460       4.09667005       1.37471470      -0.71832313       0.86587759      -0.23196247
8
Lattice="5.5386 0.0 0.0 0.0 5.5386 0.0 0.0 0.0 5.5386" Properties=species:S:1:pos:R:3:forces:R:3 config_type=bulk energy=-43.0608321075109 virial="-3.258975454587753 1.1904229416071666 0.4735291373237591 1.1904229416071666 -2.8134971114442893 1.7465421759626358 0.4735291373237591 1.7465421759626358 -3.1172031072818274" label_model=mpa-0 structure_key=3a3be93e90498d55844e41cee8e419ff31b70b21b3371f676fc75123abddf0f8 pbc="T T T"
Si       0.01257915      -0.01340087       0.02412785      -0.13047780       0.02554221      -0.80386726
Si       1.38431262       1.33737197       1.40944035       0.58586490      -0.16387784      -0.13191062
Si       0.03995179       2.72808336       2.71378044      -0.61806793       0.03416280       0.25686920
Si       1.38275484       4.08365743       4.12220977       0.15710807       0.43442119       0.30190028
Si       2.86640880      -0.05187559       2.79346608      -1.14035668      -0.53390191      -0.70416233
Si       4.07538622       1.35089419       4.08072511       1.26769030       0.52363847       0.92184508
Si       2.78107588       2.74785134       0.01115068      -0.38379663      -0.30997487      -0.30591848
Si       4.16840350       4.12099871       1.31686056       0.26203579      -0.01001004       0.46524413
8
Lattice="5.3214 0.0 0.0 0.0 5.3214 0.0 0.0 0.0 5.3214" Properties=species:S:1:pos:R:3:forces:R:3 config_type=bulk energy=-42.27259335672559 virial="9.328116595121722 1.2792633584598085 -1.5487727408040648 1.2792633584598085 8.867681900456857 -2.1052759394148133 -1.5487727408040648 -2.1052759394148133 9.862394690484651" label_model=mpa-0 structure_key=c8d6a3efa730399881aa56514abcf0264c5e882cb519864bf5f681f777723bba pbc="T T T"
Si      -0.02590311      -0.08357244       0.01869424      -0.08646684       0.75282558       0.29332966
Si       1.32955591       1.41733246       1.34823916      -0.25000491      -0.89236569      -1.22681543
Si      -0.04979376       2.56493049       2.69750627       2.18408803       1.02744933      -0.02191427
Si       1.31129417       3.98661020       3.95453215       0.10473086      -0.82268752       0.87927364
Si       2.54070762       0.05449444       2.68967880       1.37563334      -0.64222565      -0.66495766
Si       4.00436271       1.37019175       3.91630159      -0.98550734      -2.35342103       1.79665279
Si       2.77883274       2.64158106       0.02158607      -1.30683259       0.29277733      -0.73192116
Si       4.03582026       3.82755846       1.43087273      -1.03564054       2.63764765      -0.32364757
8
Lattice="5.345533333333333 0.0 0.0 0.0 5.345533333333333 0.0 0.0 0.0 5.345533333333333" Properties=species:S:1:pos:R:3:forces:R:3 config_type=bulk energy=-42.60349233475919 virial="7.283635921233257 1.0835043356666363 0.22358776523460674 1.0835043356666363 8.03232265983529 3.5179311583790196 0.22358776523460674 3.5179311583790196 7.496799479646795" label_model=mpa-0 structure_key=4e350fbb902bd1f1cf82cb314732a63b07a768ae99bd0f4f79b3549822189f94 pbc="T T T"
Si       0.02455441       0.01837879      -0.05912884      -1.22541758       0.90080375       1.87091162
Si       1.34151345       1.30864339       1.37167559      -0.01128839       0.69064135      -0.39811624
Si       0.05019195       2.65631064       2.78885143      -1.06064353      -0.10112914      -1.90979251
Si       1.18974888       4.09521443       4.00762326       2.59435103      -0.91394672      -0.27547855
Si       2.66832388       0.01980344       2.69968758      -0.13312443      -0.78797450      -0.33165246
Si       4.00970098       1.30516126       3.98462990      -0.39066777       0.70617364       0.64780940
Si       2.66609700       2.71827091      -0.00384830      -0.76500608      -0.47735426      -0.58869683
Si       3.97131558       4.02376570       1.28537063       0.99179675      -0.01721412       0.98501558
8
Lattice="5.369666666666666 0.0 0.0 0.0 5.369666666666666 0.0 0.0 0.0 5.369666666666666" Properties=species:S:1:pos:R:3:forces:R:3 config_type=bulk energy=-41.353878085366695 virial="9.167168870339669 2.3307608805618925 3.19703541076409 2.3307608805618925 8.858598456464987 -6.581364406630928 3.19703541076409 -6.581364406630928 7.74504435246896" label_model=mpa-0 structure_key=b33947fa85685cf0c4433c81563ba6fe2ede3eba65ed336ea761f5f9689f5041 pbc="T T T"
Si      -0.06838752       0.05235048      -0.10120570       4.18305862      -2.77653447       2.86925671
Si       1.40202507       1.47598222       1.27818745      -1.98685674      -3.07838044       2.28626137
Si       0.00185733       2.76149743       2.64994542      -1.47263837      -2.15077098      -0.51569932
Si       1.30996723       3.96073162       3.88862914      -0.21017758       0.77266998       2.28663028
Si       2.63159723      -0.04170007       2.80652653       1.57316738       1.24873908      -2.20750416
Si       4.09162250       1.22920841       4.17128735      -3.63992118       4.16080276      -3.40249839
Si       2.54737808       2.73236533       0.04994100       2.51382879       0.94880316      -2.43244418
Si       4.06716671       4.00093060       1.22180504      -0.96046092       0.87467091       1.11599768
8
Lattice="5.3938 0.0 0.0 0.0 5.3938 0.0 0.0 0.0 5.3938" Properties=species:S:1:pos:R:3:forces:R:3 config_type=bulk energy=-42.58472806303193 virial="5.093453212092863 0.4650661647553064 0.2079473844292332 0.4650661647553064 5.3741734472949485 -1.9241071756534678 0.2079473844292332 -1.9241071756534678 5.04422235973736" label_model=mpa-0 structure_key=655491cfa8a7eef45cb2849523caf6ab065104e8f3cee553efd49ab5bc3cf332 pbc="T T T"
Si      -0.02497886      -0.03834127       0.01683618      -0.46384532       0.88510312       0.11864836
Si       1.40098023       1.46876138       1.23253184      -1.85044804      -2.08465982       1.97372273
Si      -0.00977150       2.76612695       2.64007671       0.37644633      -0.40391211       0.76183548
Si       1.39303267       4.07307199       4.16025773      -1.29878104       0.87163297      -2.22402255
Si       2.68894639       0.04098590       2.69471661      -0.61499491      -0.37868763      -0.62830371
Si       3.97818859       1.35596979       3.99923733       0.96506839       0.52268349       0.56934492
Si       2.58497444       2.73868820      -0.01141620       2.45803584      -0.40149291      -0.98945407
Si       3.94964055       3.97787414       1.31228501       0.42851875       0.98933289       0.41822884
8
Lattice="5.417933333333333 0.0 0.0 0.0 5.417933333333333 0.0 0.0 0.0 5.417933333333333" Properties=species:S:1:pos:R:3:forces:R:3 config_type=bulk energy=-42.81285857501902 virial="3.510932671469469 0.33126365386735057 1.2049460180562372 0.33126365386735057 3.6953667164128996 0.4448907853286171 1.2049460180562372 0.4448907853286171 3.758118855095871" label_model=mpa-0 structure_key=b9c67f8cfe393636c73cea7e40c1e62d8587cda87ab697e37f9a7d37390ca8f9 pbc="T T T"
Si       0.08421361      -0.06740832       0.01087221      -0.64825428       0.70312885      -0.03857103
Si       1.37678443       1.37437052       1.39147472      -0.22320623      -0.27263832      -0.23462297
Si      -0.04317252       2.73254507       2.62061142       0.47882571      -0.65389587       1.80058517
Si       1.45235672       4.10546302       4.05080794      -1.07596607      -1.01806647      -0.22690508
Si       2.72830078       0.05149562       2.78154395      -0.28980703      -0.92338010      -1.83341667
Si       3.95463213       1.28529150       4.08922955       2.22568799       1.32775529       0.87156570
Si       2.70266104       2.72884128       0.03183295      -0.01452186      -0.30554921      -0.23483341
Si       4.07724428       4.02869843       1.34450603      -0.45275824       1.14264583      -0.10380171
8
Lattice="5.4420666666666655 0.0 0.0 0.0 5.4420666666666655 0.0 0.0 0.0 5.4420666666666655" Properties=species:S:1:pos:R:3:forces:R:3 config_type=bulk energy=-43.07989922082259 virial="1.2689951645898128 -0.48026166989352737 -0.7023842253828755 -0.48026166989352737 1.5466094809102997 -0.3481222714150811 -0.7023842253828755 -0.3481222714150811 1.671134849811792" label_model=mpa-0 structure_key=d8d954c2f42be313c96932aeffaf4d7b0bd8d72b2470a048e9ac6c60313363e1 pbc="T T T"
Si       0.09106267      -0.06179301       0.02414986      -0.89550990      -0.04001577      -0.01156073
Si       1.28023377       1.31579891       1.40330239       0.40022471       0.61821790       0.28170256
Si      -0.10751269       2.69836343       2.78685410       1.03765836       0.84742226      -0.68225180
Si       1.40735474       4.04685452       4.12137018      -0.15355591       0.00648097      -0.80957752
Si       2.74374150       0.08130294       2.76193191      -0.17055157      -0.41309653       0.17039238
Si       4.14276142       1.38805119       4.14690143      -0.42409372      -0.97793820       0.47361575
Si       2.67759413       2.64202637      -0.01349606       0.27959363       0.36186231       0.94589543
Si       4.04133392       4.11838465       1.39875848      -0.07376560      -0.40293294      -0.36821607
8
Lattice="5.4662 0.0 0.0 0.0 5.4662 0.0 0.0 0.0 5.4662" Properties=species:S:1:pos:R:3:forces:R:3 config_type=bulk energy=-43.02019412539359 virial="0.6837432637980891 0.5975629411378335 -1.319759293021276 0.5975629411378335 0.4532099393408348 0.659953746353694 -1.319759293021276 0.659953746353694 0.5154804583242377" label_model=mpa-0 structure_key=a9afd10aefa2b1e6e325b81d10ef04ebfa4cfc7a3f38b6eb6cef556a0da4563a pbc="T T T"
Si       0.05765895      -0.05562510      -0.08253458      -0.23750866       0.46124314       0.87344330
Si       1.39530115       1.43502352       1.34458541      -0.30387049      -0.91750759       0.12249552
Si      -0.01074216       2.68788449       2.78287803      -0.22498200       0.24198445      -0.66948070
Si       1.39398694       4.03972610       4.06127178      -0.08018538      -0.32252742       0.49061037
Si       2.68905999      -0.10652031       2.71723662       0.05439014       1.62966696       0.17259949
Si       4.11058820       1.33730664       4.11799055      -0.48848468      -0.30083586      -0.02047617
Si       2.79687676       2.79115821       0.07105458      -0.37376493      -0.71244817      -0.96807106
Si       4.04513678       4.12986547       1.38690033       1.65440601      -0.07957551      -0.00112076
8
Lattice="5.490333333333333 0.0 0.0 0.0 5.490333333333333 0.0 0.0 0.0 5.490333333333333" Properties=species:S:1:pos:R:3:forces:R:3 config_type=bulk energy=-42.79818346039101 virial="0.026163906329627284 -1.6301844192351034 -1.4849051498020729 -1.6301844192351034 -0.30714702382994696 -0.35820218258858083 -1.4849051498020729 -0.35820218258858083 -0.008107978077616984" label_model=mpa-0 structure_key=e6a3669e3276d1c2be2b649190aa874a0d472e65a0945ea49bb50bd670eadc7a pbc="T T T"
Si       0.02206255      -0.00553306      -0.02670873      -0.37512155       0.23536749       0.01773716
Si       1.46188695       1.38106341       1.26370616      -0.99153329      -0.57238698       1.08838737
Si      -0.09709479       2.74115827       2.62216484       1.54408014      -0.46477040       1.00902611
Si       1.36444883       4.10307748       4.13705249      -0.19283990      -0.23178183      -0.97805353
Si       2.76134353      -0.02717227       2.71433359       0.10972358       0.16866560       0.21455835
Si       4.07670952       1.48712636       4.16052223       1.31924427      -2.06724729      -1.68120684
Si       2.76978163       2.67540444      -0.06431342      -0.98421220       1.63046052       0.56826475
Si       4.11405151       4.02553444       1.29922950      -0.42934105       1.30169289      -0.23871337
8
Lattice="5.514466666666666 0.0 0.0 0.0 5.514466666666666 0.0 0.0 0.0 5.514466666666666" Properties=species:S:1:pos:R:3:forces:R:3 config_type=bulk energy=-42.81301572363914 virial="-1.5792282046374206 -0.852054318740588 2.304941382288118 -0.852054318740588 -1.2071966853072098 -3.3743876561218187 2.304941382288118 -3.3743876561218187 -1.2514823554142236" label_model=mpa-0 structure_key=f31339a6d7f71d95b8491c02b96ef9c9342fc5466367d991ad048b44ca9e9bf3 pbc="T T T"
Si      -0.00209242       0.01596053       0.01379422       0.67761476      -0.33954815      -0.10347675
Si       1.43854602       1.33926864       1.44539281      -1.09621152       1.18619509      -1.38158763
Si      -0.01387349       2.82569423       2.65791572       1.18166982      -1.08561037       1.33434289
Si       1.43128130       4.17256840       4.07136153      -0.67906681      -0.53295056       0.87842999
Si       2.67509745       0.03259693       2.72867075       2.18792937      -0.75180446       0.57962882
Si       4.23902658       1.35361980       4.09443408      -0.97391354       0.51900297      -0.02102760
Si       2.80075029       2.76571356       0.03816304      -0.05212693      -0.49404883      -0.78740031
Si       4.19746191       4.07708007       1.37276371      -1.24589515       1.49876432      -0.49890941
8
Lattice="5.5386 0.0 0.0 0.0 5.5386 0.0 0.0 0.0 5.5386" Properties=species:S:1:pos:R:3:forces:R:3 config_type=bulk energy=-42.78836200528857 virial="-3.2080523647677097 2.1383962765041207 0.8937101039974717 2.1383962765041207 -2.060521852948167 3.13980164429188 0.8937101039974717 3.13980164429188 -2.855027621287611" label_model=mpa-0 structure_key=d104c89672327957ee2ea1d75489d1ec80f5b49a8a32231d90f94e75a3906727 pbc="T T T"
Si       0.01886872      -0.02010131       0.03619177      -0.19987056       0.04043912      -1.27179229
Si       1.38414394       1.31373296       1.42183552       0.98059291      -0.29762450      -0.21477708
Si       0.05992768       2.70747505       2.68602066      -1.02886818       0.09075526       0.41421700
Si       1.38180725       4.04851114       4.10633965       0.26924995       0.69998503       0.47576315
Si       2.91496320      -0.07781338       2.80554912      -1.91357557      -1.13334311      -1.28659852
Si       4.03610434       1.33401628       4.04411267       2.10366344       1.12721947       1.61618304
Si       2.78696381       2.73712700       0.01672602      -0.62255096      -0.52515067      -0.49086353
Si       4.17563025       4.10452307       1.28296585       0.41135897      -0.00228059       0.75786822
8
Lattice="5.3214 0.0 0.0 0.0 5.3214 0.0 0.0 0.0 5.3214" Properties=species:S:1:pos:R:3:forces:R:3 config_type=bulk energy=-41.663609688131885 virial="10.168315521318316 1.70402583621193 -2.189436887130348 1.70402583621193 9.351903329688438 -3.126544052081165 -2.189436887130348 -3.126544052081165 11.075925930643612" label_model=mpa-0 structure_key=23b1e7b8bd7ede8c5a3152ffa5a7041c24991e9e00d63f999996cd9edd653bee pbc="T T T"
Si      -0.03453748      -0.11142992       0.02492565      -0.10508524       0.98248946       0.39326404
Si       1.32929121       1.44632662       1.35420222      -0.29286125      -1.12734062      -1.62047576
Si      -0.06639168       2.53300732       2.70977502       3.30884458       1.44407107      -0.12718819
Si       1.30494223       3.98513027       3.94235953       0.09778073      -1.11916122       1.13328407
Si       2.50071016       0.07265926       2.69933839       1.79348039      -0.74803915      -0.77845331
Si       4.00880028       1.38347233       3.89138546      -1.65337702      -3.35126267       2.59448385
Si       2.81821033       2.63520809       0.02878143      -1.73474667       0.33087793      -0.97542608
Si       4.05074368       3.77306127       1.46438031      -1.41403552       3.58836520      -0.61948861
8
Lattice="5.345533333333333 0.0 0.0 0.0 5.345533333333333 0.0 0.0 0.0 5.345533333333333" Properties=species:S:1:pos:R:3:forces:R:3 config_type=bulk energy=-42.186235995397794 virial="7.674649470573355 1.2869422806389341 0.2679851535409025 1.2869422806389341 9.094702024099918 5.0245374812189105 0.2679851535409025 5.0245374812189105 8.10919607199953" label_model=mpa-0 structure_key=fcaf7eb402d65ae610dbeae2e6892e73d919dd9ae520427bfaa444e320b77cc9 pbc="T T T"
Si       0.03273921       0.02450505      -0.07883845      -1.78496159       1.43512328       2.75530403
Si       1.34322349       1.29939674       1.38343968      -0.04929277       0.94703018      -0.54892783
Si       0.06692261       2.65082529       2.82754635      -1.34519628      -0.28659038      -2.52211070
Si       1.14087073       4.12390257       4.00711435       3.62030036      -1.33812827      -0.63759927
Si       2.66684295       0.02640459       2.70866121      -0.19982968      -1.11576224      -0.44171632
Si       4.00988464       1.29475390       3.97645653      -0.50970736       0.97177913       0.88291396
Si       2.66387377       2.73343899      -0.00513106      -1.05448340      -0.70414981      -0.81061969
Si       3.95870411       4.02863760       1.26836640       1.32317073       0.09069811       1.32275583
8
Lattice="5.369666666666666 0.0 0.0 0.0 5.369666666666666 0.0 0.0 0.0 5.369666666666666" Properties=species:S:1:pos:R:3:forces:R:3 config_type=bulk energy=-39.666670864868586 virial="11.942625233724497 2.6884595429165623 4.6290277739577785 2.6884595429165623 11.505128982378356 -9.541269472197136 4.6290277739577785 -9.541269472197136 9.223691785982384" label_model=mpa-0 structure_key=59c055f829055ad1fdd421a1cd156bca27ccab64d8a7a04165c1de816394a5c0 pbc="T T T"
Si      -0.09118336       0.06980064      -0.13494094       6.46964981      -4.68186028       4.57233762
Si       1.42189454       1.52050407       1.25677771      -2.96018133      -4.44076423       3.48219608
Si       0.00247644       2.78705213       2.63831611      -2.09886280      -2.90209707      -0.93749173
Si       1.29915075       3.93855883       3.84242218      -0.03280952       0.95235905       3.20670876
Si       2.61385187      -0.05560009       2.84709093       2.16338926       1.83075635      -2.81144555
Si       4.11308000       1.19147232       4.21929980      -5.92095887       6.36321004      -5.32035798
Si       2.50155966       2.74820932       0.06658800       3.54159540       1.89703627      -3.55514336
Si       4.08047229       3.99215747       1.18160117      -1.16182195       0.98135986       1.36319617
8
Lattice="5.3938 0.0 0.0 0.0 5.3938 0.0 0.0 0.0 5.3938" Properties=species:S:1:pos:R:3:forces:R:3 config_type=bulk energy=-41.98880275679336 virial="5.916088075598286 0.7299022706593389 0.2811958523456033 0.7299022706593389 6.570129397818695 -3.0386890555884616 0.2811958523456033 -3.0386890555884616 5.8904498168572035" label_model=mpa-0 structure_key=bcea1a67e993dc15e3e07a8ab0950564070a63dc8738bebc9fa67412dcb92f6b pbc="T T T"
Si      -0.03330514      -0.05112169       0.02244824      -0.63694896       1.20233937       0.16685002
Si       1.41849030       1.50886517       1.19389245      -2.77076662      -3.15692024       2.98360647
Si      -0.01302867       2.78920260       2.62113561       0.51511475      -0.55908642       1.00974304
Si       1.40789356       4.08231266       4.19856031      -1.84039987       1.44368156      -3.16759360
Si       2.68629518       0.05464787       2.69398882      -0.88084123      -0.60181495      -0.91698566
Si       3.95580146       1.35847639       3.98386644       1.35470161       0.77839899       0.83363101
Si       2.54766592       2.75261760      -0.01522160       3.67425481      -0.45161044      -1.48993349
Si       3.91773740       3.95538219       1.30023001       0.58488552       1.34501213       0.58068222
8
Lattice="5.417933333333333 0.0 0.0 0.0 5.417933333333333 0.0 0.0 0.0 5.417933333333333" Properties=species:S:1:pos:R:3:forces:R:3 config_type=bulk energy=-42.40316357668578 virial="4.1868473452780615 0.6280450809654533 1.9154257124356782 0.6280450809654533 4.508289770917175 0.678299679408576 1.9154257124356782 0.678299679408576 4.658544141222747" label_model=mpa-0 structure_key=b7f34080a083cca0f2becea36fb795f7f821c37344a045fad3edf4081dd56314 pbc="T T T"
Si       0.11228482      -0.08987775       0.01449629      -0.89377383       0.94421103      -0.01129566
Si       1.38421814       1.38099958       1.40380518      -0.29576813      -0.38879290      -0.30917906
Si      -0.05756336       2.74040454       2.59115967       0.76596716      -0.97862119       2.46477912
Si       1.48498119       4.11946736       4.04659392      -1.45571573      -1.41697243      -0.26542984
Si       2.73474548       0.06866083       2.80573638      -0.56013692      -1.36187536      -2.75749115
Si       3.91835951       1.26222756       4.09782274       3.14257269       1.97598949       1.46170611
Si       2.70055917       2.73546615       0.04244393      -0.02114431      -0.42215782      -0.34303834
Si       4.08184238       4.01711458       1.34118026      -0.68200092       1.64821918      -0.24005118
8
Lattice="5.4420666666666655 0.0 0.0 0.0 5.4420666666666655 0.0 0.0 0.0 5.4420666666666655" Properties=species:S:1:pos:R:3:forces:R:3 config_type=bulk energy=-42.89175717022278 virial="1.2501938479507348 -0.6272995694389198 -1.0587838754960928 -0.6272995694389198 1.807794978341454 -0.5741273574820105 -1.0587838754960928 -0.5741273574820105 2.0314977714548292" label_model=mpa-0 structure_key=86e9edd6e9feb1652c4de9fc0f34f190cce780c926cf1526672515fdcfa069e0 pbc="T T T"
Si       0.12141690      -0.08239068       0.03219981      -1.24547757      -0.06790252      -0.01933541
Si       1.25347281       1.30089299       1.41756430       0.54908609       0.86004451       0.42215793
Si      -0.14335025       2.69080680       2.80879435       1.46948930       1.25894575      -1.05156177
Si       1.42296743       4.03528936       4.13464357      -0.21001643       0.01673946      -1.13580849
Si       2.75131089       0.10840393       2.77556476      -0.22879925      -0.53940997       0.22825364
Si       4.16316522       1.39722936       4.16868524      -0.62394233      -1.43354925       0.77334292
Si       2.66311440       2.61569071      -0.01799475       0.36260937       0.44361747       1.28217151
Si       4.02792856       4.13066287       1.41150575      -0.07294918      -0.53848546      -0.49922032
8
Lattice="5.4662 0.0 0.0 0.0 5.4662 0.0 0.0 0.0 5.4662" Properties=species:S:1:pos:R:3:forces:R:3 config_type=bulk energy=-42.76640836049426 virial="1.1744494174380566 0.9579908907122818 -1.9133180412758513 0.9579908907122818 0.772493533407871 1.0359030407546805 -1.9133180412758513 1.0359030407546805 0.8906018297814547" label_model=mpa-0 structure_key=bbeee61b108a8ab3f6348baabad7d11ee640e83b6013ee4f3015d5fd58864e64 pbc="T T T"
Si       0.07687859      -0.07416680      -0.11004611      -0.34392533       0.64722462       1.20103938
Si       1.40488486       1.45784802       1.33726388      -0.42093008      -1.26468179       0.18306308
Si      -0.01432288       2.67281265       2.79947071      -0.29656028       0.33978871      -0.92863271
Si       1.40313258       4.01975146       4.04847903      -0.10807271      -0.51332323       0.71766767
Si       2.67437999      -0.14202708       2.71194882       0.02035191       2.31642239       0.24814469
Si       4.11423427       1.32755886       4.12410407      -0.68319654      -0.41576317      -0.00046169
Si       2.81813568       2.81051095       0.09473944      -0.57860079      -1.04462754      -1.42702597
Si       4.02696571       4.13993730       1.39368377       2.41093382      -0.06503998       0.00620555
8
Lattice="5.490333333333333 0.0 0.0 0.0 5.490333333333333 0.0 0.0 0.0 5.490333333333333" Properties=species:S:1:pos:R:3:forces:R:3 config_type=bulk energy=-42.32147144611078 virial="0.9488839972111014 -2.6152738105115465 -2.303297846533315 -2.6152738105115465 0.23161750757555932 -0.41928189107842784 -2.303297846533315 -0.41928189107842784 0.882689753044664" label_model=mpa-0 structure_key=896e93da4e4214abd8f2635e8c92e989c5726e1ed092598567d5de606a5100f0 pbc="T T T"
Si       0.02941673      -0.00737742      -0.03561164      -0.54217402       0.34712679       0.04824447
Si       1.49165482       1.38389010       1.22741377      -1.41992493      -0.85449092       1.56136775
Si      -0.12945972       2.73982214       2.58116424       2.19301302      -0.81224341       1.52900367
Si       1.36173733       4.09818664       4.14348665      -0.22299262      -0.33217113      -1.31661426
Si       2.76673582      -0.03622969       2.70405590       0.14559452       0.23618206       0.27777473
Si       4.06302936       1.52530737       4.17477964       2.18668014      -3.02951324      -2.60486445
Si       2.77798662       2.65215036      -0.08575123      -1.61976597       2.53864900       0.98201449
Si       4.11281868       3.99479592       1.27477822      -0.72043015       1.90646085      -0.47692641
8
Lattice="5.514466666666666 0.0 0.0 0.0 5.514466666666666 0.0 0.0 0.0 5.514466666666666" Properties=species:S:1:pos:R:3:forces:R:3 config_type=bulk energy=-42.36678360029722 virial="-1.054254704424146 -1.563070142447005 3.618085212964432 -1.563070142447005 -0.36511890055562546 -5.198688743477089 3.618085212964432 -5.198688743477089 -0.4561754262854425" label_model=mpa-0 structure_key=c98e355bf65251c140ed4e6672c2ec43586dc0d54d6898ff49d171a4acf61cce pbc="T T T"
Si      -0.00278990       0.02128071       0.01839229       0.94492409      -0.48009791      -0.09392514
Si       1.45852247       1.32615263       1.46765152      -1.71915743       1.87514037      -2.09420724
Si      -0.01849799       2.84851453       2.62480985       1.85962002      -1.69509322       2.02479058
Si       1.44883617       4.18480787       4.04986538      -0.98812486      -0.80100515       1.25198251
Si       2.64771883       0.04346257       2.71914989       3.20293013      -1.16519783       0.97897207
Si       4.27341877       1.34528751       4.08062878      -1.33671906       0.72574751      -0.09053058
Si       2.81525595       2.76854030       0.05088405      -0.10154612      -0.69385332      -1.07834066
Si       4.21799921       4.05749010       1.37081273      -1.86192678       2.23435955      -0.89874153
8
Lattice="5.5386 0.0 0.0 0.0 5.5386 0.0 0.0 0.0 5.5386" Properties=species:S:1:pos:R:3:forces:R:3 config_type=bulk energy=-42.37320762911459 virial="-3.1767779141853754 3.1812943016735944 1.3841269209880356 3.1812943016735944 -0.9194283864460634 4.7285013032283905 1.3841269209880356 4.7285013032283905 -2.5170545304084917" label_model=mpa-0 structure_key=92d62e86d40fb743f043f24287544dae8c312c0ca621277e51f4e4b501b99df3 pbc="T T T"
Si       0.02515829      -0.02680174       0.04825569      -0.24406224       0.04227089      -1.74099736
Si       1.38397525       1.29009394       1.43423070       1.42488469      -0.46520065      -0.32595382
Si       0.07990358       2.68686673       2.65826088      -1.49116643       0.19420732       0.58544804
Si       1.38085967       4.01336485       4.09046953       0.39711100       0.98320390       0.66013020
Si       2.96351760      -0.10375118       2.81763216      -2.72438193      -1.95794869      -1.97376098
Si       3.99682245       1.31713838       4.00750022       2.95771494       1.96396152       2.40256360
Si       2.79285175       2.72640267       0.02230136      -0.88244799      -0.77980122      -0.69315530
Si       4.18285700       4.08804742       1.24907113       0.56234796       0.01930693       1.08572562
8
Lattice="5.2128 0.0 0.0 0.0 5.2128 0.0 0.0 0.0 5.2128" Properties=species:S:1:pos:R:3:forces:R:3 config_type=bulk energy=-42.30036008243041 virial="15.327835483953953 1.982542649285906e-15 -2.1867814998263628e-15 1.982542649285906e-15 15.327835483953967 -5.145767012504383e-15 -2.1867814998263628e-15 -5.145767012504383e-15 15.32783548395396" label_model=mpa-0 structure_key=f7eaaea0d0b30561cd1f13aaeae3b95d86adda76eac0330a21a0010696badd56 pbc="T T T"
Si       0.00000000       0.00000000       0.00000000       0.00000000      -0.00000000       0.00000000
Si       1.30320000       1.30320000       1.30320000      -0.00000000      -0.00000000       0.00000000
Si       0.00000000       2.60640000       2.60640000       0.00000000      -0.00000000       0.00000000
Si       1.30320000       3.90960000       3.90960000       0.00000000       0.00000000       0.00000000
Si       2.60640000       0.00000000       2.60640000       0.00000000      -0.00000000      -0.00000000
Si       3.90960000       1.30320000       3.90960000      -0.00000000      -0.00000000       0.00000000
Si       2.60640000       2.60640000       0.00000000       0.00000000       0.00000000      -0.00000000
Si       3.90960000       3.90960000       1.30320000      -0.00000000       0.00000000      -0.00000000
8
Lattice="5.261066666666666 0.0 0.0 0.0 5.261066666666666 0.0 0.0 0.0 5.261066666666666" Properties=species:S:1:pos:R:3:forces:R:3 config_type=bulk energy=-42.67465984503943 virial="11.796873895966526 -3.561688103717228e-15 -3.984486721494302e-15 -3.561688103717228e-15 11.796873895966543 1.5138435719413103e-14 -3.984486721494302e-15 1.5138435719413103e-14 11.79687389596653" label_model=mpa-0 structure_key=459a229e41fcba99d9878e24d42082eeb1dcc0975e78231d820ea0fe0612a666 pbc="T T T"
Si       0.00000000       0.00000000       0.00000000      -0.00000000       0.00000000       0.00000000
Si       1.31526667       1.31526667       1.31526667       0.00000000      -0.00000000       0.00000000
Si       0.00000000       2.63053333       2.63053333      -0.00000000       0.00000000       0.00000000
Si       1.31526667       3.94580000       3.94580000       0.00000000       0.00000000       0.00000000
Si       2.63053333       0.00000000       2.63053333      -0.00000000       0.00000000      -0.00000000
Si       3.94580000       1.31526667       3.94580000      -0.00000000      -0.00000000       0.00000000
Si       2.63053333       2.63053333       0.00000000      -0.00000000      -0.00000000      -0.00000000
Si       3.94580000       3.94580000       1.31526667       0.00000000      -0.00000000      -0.00000000
8
Lattice="5.309333333333333 0.0 0.0 0.0 5.309333333333333 0.0 0.0 0.0 5.309333333333333" Properties=species:S:1:pos:R:3:forces:R:3 config_type=bulk energy=-42.95351074451031 virial="8.610829896949449 -2.37327028985736e-15 -6.104110194105514e-15 -2.37327028985736e-15 8.610829896949443 4.584384983229213e-15 -6.104110194105514e-15 4.584384983229213e-15 8.610829896949449" label_model=mpa-0 structure_key=649aa50181c50c6ff1f58d9de9ea72eb18676f7422209d47f6167611310ca583 pbc="T T T"
Si       0.00000000       0.00000000       0.00000000      -0.00000000      -0.00000000      -0.00000000
Si       1.32733333       1.32733333       1.32733333      -0.00000000      -0.00000000      -0.00000000
Si       0.00000000       2.65466667       2.65466667       0.00000000      -0.00000000       0.00000000
Si       1.32733333       3.98200000       3.98200000       0.00000000       0.00000000      -0.00000000
Si       2.65466667       0.00000000       2.65466667       0.00000000       0.00000000      -0.00000000
Si       3.98200000       1.32733333       3.98200000      -0.00000000      -0.00000000      -0.00000000
Si       2.65466667       2.65466667       0.00000000       0.00000000       0.00000000       0.00000000
Si       3.98200000       3.98200000       1.32733333       0.00000000       0.00000000       0.00000000
8
Lattice="5.3576 0.0 0.0 0.0 5.3576 0.0 0.0 0.0 5.3576" Properties=species:S:1:pos:R:3:forces:R:3 config_type=bulk energy=-43.14766910817024 virial="5.733432633826997 5.711419932947097e-14 1.8585789688310505e-14 5.711419932947097e-14 5.733432633826978 2.8148846631759983e-14 1.8585789688310505e-14 2.8148846631759983e-14 5.733432633826983" label_model=mpa-0 structure_key=7cb329397218b191c8779622b21e05b237ee9b1e975151b2449b66c7b602b422 pbc="T T T"
Si       0.00000000       0.00000000       0.00000000       0.00000000       0.00000000       0.00000000
Si       1.33940000       1.33940000       1.33940000      -0.00000000      -0.00000000      -0.00000000
Si       0.00000000       2.67880000       2.67880000       0.00000000       0.00000000       0.00000000
Si       1.33940000       4.01820000       4.01820000      -0.00000000      -0.00000000      -0.00000000
Si       2.67880000       0.00000000       2.67880000      -0.00000000       0.00000000       0.00000000
Si       4.01820000       1.33940000       4.01820000      -0.00000000      -0.00000000      -0.00000000
Si       2.67880000       2.67880000       0.00000000       0.00000000      -0.00000000       0.00000000
Si       4.01820000       4.01820000       1.33940000      -0.00000000      -0.00000000      -0.00000000
8
Lattice="5.405866666666666 0.0 0.0 0.0 5.405866666666666 0.0 0.0 0.0 5.405866666666666" Properties=species:S:1:pos:R:3:forces:R:3 config_type=bulk energy=-43.26604290565397 virial="3.096669280960555 5.597492150711064e-15 3.349684087435317e-14 5.597492150711064e-15 3.096669280960555 1.4451727583825725e-14 3.349684087435317e-14 1.4451727583825725e-14 3.0966692809605645" label_model=mpa-0 structure_key=c42ffd0444a77ce30764f4c72b1acb0b25211d86d908cd43a79e60f5b6237de8 pbc="T T T"
Si       0.00000000       0.00000000       0.00000000      -0.00000000      -0.00000000       0.00000000
Si       1.35146667       1.35146667       1.35146667       0.00000000       0.00000000      -0.00000000
Si       0.00000000       2.70293333       2.70293333       0.00000000      -0.00000000       0.00000000
Si       1.35146667       4.05440000       4.05440000      -0.00000000       0.00000000      -0.00000000
Si       2.70293333       0.00000000       2.70293333      -0.00000000       0.00000000       0.00000000
Si       4.05440000       1.35146667       4.05440000       0.00000000      -0.00000000      -0.00000000
Si       2.70293333       2.70293333       0.00000000       0.00000000       0.00000000      -0.00000000
Si       4.05440000       4.05440000       1.35146667       0.00000000      -0.00000000       0.00000000
8
Lattice="5.454133333333333 0.0 0.0 0.0 5.454133333333333 0.0 0.0 0.0 5.454133333333333" Properties=species:S:1:pos:R:3:forces:R:3 config_type=bulk energy=-43.315638793302696 virial="0.6471931909565307 7.107231061803143e-14 6.291634376477622e-14 7.107231061803143e-14 0.647193190956521 6.528124012732354e-14 6.291634376477622e-14 6.528124012732354e-14 0.647193190956522" label_model=mpa-0 structure_key=9c9bfb5d0880e4c70651cef1f6460e1cb41e231303de1015911085e2d852ce4e pbc="T T T"
Si       0.00000000       0.00000000       0.00000000       0.00000000       0.00000000       0.00000000
Si       1.36353333       1.36353333       1.36353333      -0.00000000      -0.00000000      -0.00000000
Si       0.00000000       2.72706667       2.72706667       0.00000000       0.00000000       0.00000000
Si       1.36353333       4.09060000       4.09060000      -0.00000000      -0.00000000      -0.00000000
Si       2.72706667       0.00000000       2.72706667       0.00000000       0.00000000       0.00000000
Si       4.09060000       1.36353333       4.09060000      -0.00000000      -0.00000000      -0.00000000
Si       2.72706667       2.72706667       0.00000000       0.00000000       0.00000000       0.00000000
Si       4.09060000       4.09060000       1.36353333      -0.00000000      -0.00000000      -0.00000000
8
Lattice="5.5024 0.0 0.0 0.0 5.5024 0.0 0.0 0.0 5.5024" Properties=species:S:1:pos:R:3:forces:R:3 config_type=bulk energy=-43.30209953282972 virial="-1.653262578091433 4.699193770780217e-15 1.8802491036048e-14 4.699193770780217e-15 -1.6532625780914318 1.3440456348480148e-14 1.8802491036048e-14 1.3440456348480148e-14 -1.6532625780914363" label_model=mpa-0 structure_key=12380d46a93444411ba5f9057987c6ab074e23c33c270db6da09df96244181dd pbc="T T T"
Si       0.00000000       0.00000000       0.00000000      -0.00000000      -0.00000000      -0.00000000
Si       1.37560000       1.37560000       1.37560000      -0.00000000      -0.00000000      -0.00000000
Si       0.00000000       2.75120000       2.75120000      -0.00000000      -0.00000000      -0.00000000
Si       1.37560000       4.12680000       4.12680000       0.00000000       0.00000000       0.00000000
Si       2.75120000       0.00000000       2.75120000      -0.00000000      -0.00000000      -0.00000000
Si       4.12680000       1.37560000       4.12680000       0.00000000       0.00000000       0.00000000
Si       2.75120000       2.75120000       0.00000000      -0.00000000      -0.00000000      -0.00000000
Si       4.12680000       4.12680000       1.37560000       0.00000000       0.00000000       0.00000000
8
Lattice="5.5506666666666655 0.0 0.0 0.0 5.5506666666666655 0.0 0.0 0.0 5.5506666666666655" Properties=species:S:1:pos:R:3:forces:R:3 config_type=bulk energy=-43.23005607584855 virial="-3.8297814284713025 -3.867412377450424e-15 -4.73172115400973e-15 -3.867412377450424e-15 -3.8297814284713083 -4.454894053105168e-15 -4.73172115400973e-15 -4.454894053105168e-15 -3.8297814284713025" label_model=mpa-0 structure_key=933a666b4907a26ba40170e9797547609c0e5d28725837d26a0ebf946b67ceee pbc="T T T"
Si       0.00000000       0.00000000       0.00000000       0.00000000       0.00000000       0.00000000
Si       1.38766667       1.38766667       1.38766667       0.00000000       0.00000000       0.00000000
Si       0.00000000       2.77533333       2.77533333       0.00000000       0.00000000       0.00000000
Si       1.38766667       4.16300000       4.16300000       0.00000000      -0.00000000      -0.00000000
Si       2.77533333       0.00000000       2.77533333       0.00000000       0.00000000       0.00000000
Si       4.16300000       1.38766667       4.16300000      -0.00000000       0.00000000      -0.00000000
Si       2.77533333       2.77533333       0.00000000      -0.00000000      -0.00000000       0.00000000
Si       4.16300000       4.16300000       1.38766667      -0.00000000      -0.00000000       0.00000000
8
Lattice="5.598933333333333 0.0 0.0 0.0 5.598933333333333 0.0 0.0 0.0 5.598933333333333" Properties=species:S:1:pos:R:3:forces:R:3 config_type=bulk energy=-43.103309034643985 virial="-5.923889542985165 2.946522338765845e-15 4.732032685117958e-15 2.946522338765845e-15 -5.923889542985168 4.581646962386637e-15 4.732032685117958e-15 4.581646962386637e-15 -5.923889542985165" label_model=mpa-0 structure_key=1038aa3cb0ccebe447661723d83b13ac42537ba4819a49af3e890278d38153d6 pbc="T T T"
Si       0.00000000       0.00000000       0.00000000      -0.00000000      -0.00000000      -0.00000000
Si       1.39973333       1.39973333       1.39973333       0.00000000      -0.00000000       0.00000000
Si       0.00000000       2.79946667       2.79946667      -0.00000000      -0.00000000      -0.00000000
Si       1.39973333       4.19920000       4.19920000       0.00000000       0.00000000       0.00000000
Si       2.79946667       0.00000000       2.79946667      -0.00000000      -0.00000000      -0.00000000
Si       4.19920000       1.39973333       4.19920000       0.00000000       0.00000000       0.00000000
Si       2.79946667       2.79946667       0.00000000      -0.00000000      -0.00000000      -0.00000000
Si       4.19920000       4.19920000       1.39973333       0.00000000       0.00000000       0.00000000
8
Lattice="5.6472 0.0 0.0 0.0 5.6472 0.0 0.0 0.0 5.6472" Properties=species:S:1:pos:R:3:forces:R:3 config_type=bulk energy=-42.92429530578161 virial="-7.9756781129480085 -2.257041167758621e-15 -2.9810761076153964e-15 -2.257041167758621e-15 -7.9756781129480085 -2.1655839410640133e-15 -2.9810761076153964e-15 -2.1655839410640133e-15 -7.975678112948012" label_model=mpa-0 structure_key=2ea6436a91a95f734636a43a73f592ceaa6e47cc29a277072b1f0117e992a311 pbc="T T T"
Si       0.00000000       0.00000000       0.00000000       0.00000000       0.00000000       0.00000000
Si       1.41180000       1.41180000       1.41180000       0.00000000       0.00000000       0.00000000
Si       0.00000000       2.82360000       2.82360000       0.00000000       0.00000000       0.00000000
Si       1.41180000       4.23540000       4.23540000       0.00000000      -0.00000000      -0.00000000
Si       2.82360000       0.00000000       2.82360000       0.00000000       0.00000000       0.00000000
Si       4.23540000       1.41180000       4.23540000      -0.00000000       0.00000000      -0.00000000
Si       2.82360000       2.82360000       0.00000000       0.00000000       0.00000000       0.00000000
Si       4.23540000       4.23540000       1.41180000      -0.00000000      -0.00000000       0.00000000
8
Lattice="5.2128 0.0 0.0 0.0 5.2128 0.0 0.0 0.0 5.2128" Properties=species:S:1:pos:R:3:forces:R:3 config_type=bulk energy=-42.20676496419725 virial="15.513196592457424 0.5531851329509844 -0.6091904497617247 0.5531851329509844 15.446896232025775 -0.722145203266723 -0.6091904497617247 -0.722145203266723 15.595466016972086" label_model=mpa-0 structure_key=fb2aec9df2719a0a35dad04296d469fca6afe3ff23137a28bff7e4c7a2e8a29d pbc="T T T"
Si      -0.00863437      -0.02785748       0.00623141      -0.07203930       0.32201794       0.14240708
Si       1.30293530       1.33219415       1.30916305      -0.13740713      -0.34380938      -0.52589463
Si      -0.01659792       2.57447683       2.61866876       0.67382091       0.34511794       0.06570665
Si       1.29684806       3.90812007       3.89742738       0.08018764      -0.36690335       0.35730912
Si       2.56640254       0.01816481       2.61605960       0.57017745      -0.30547674      -0.34988634
Si       3.91403757       1.31648058       3.88468386      -0.20063499      -0.81892134       0.59370555
Si       2.64577758       2.60002702       0.00719536      -0.52095225       0.15813320      -0.31360767
Si       3.92452342       3.85510282       1.33670758      -0.39315233       1.00984173       0.03026025
8
Lattice="5.261066666666666 0.0 0.0 0.0 5.261066666666666 0.0 0.0 0.0 5.261066666666666" Properties=species:S:1:pos:R:3:forces:R:3 config_type=bulk energy=-42.61217625020963 virial="11.937597810909958 0.5489573912882604 0.13236158637540912 0.5489573912882604 12.0182355757134 1.2585232949404552 0.13236158637540912 1.2585232949404552 11.954881166934175" label_model=mpa-0 structure_key=ac702accd4fe79f8320785bf6000168b3fbab49859c14b67523d0998c539b1cf pbc="T T T"
Si       0.00818480       0.00612626      -0.01970961      -0.37681183       0.24348303       0.59897989
Si       1.31697670       1.30602002       1.32703075      -0.00391798       0.25109987      -0.15573454
Si       0.01673065       2.62504799       2.66922825      -0.42243824       0.05493118      -0.72959029
Si       1.26638852       3.97448814       3.94529109       0.88223253      -0.29224206       0.00885450
Si       2.62905240       0.00660115       2.63950697      -0.02922501      -0.28986408      -0.11009706
Si       3.94598366       1.30485931       3.93762663      -0.16704580       0.25504029       0.24417632
Si       2.62831011       2.64570141      -0.00128277      -0.29007893      -0.15724198      -0.24508218
Si       3.93318853       3.95067190       1.29826243       0.40728525      -0.06520625       0.38849336
8
Lattice="5.309333333333333 0.0 0.0 0.0 5.309333333333333 0.0 0.0 0.0 5.309333333333333" Properties=species:S:1:pos:R:3:forces:R:3 config_type=bulk energy=-42.76667258516845 virial="9.258849188170686 0.9176976752036358 0.9772732976884635 0.9176976752036358 9.204161029749038 -1.9007876309410439 0.9772732976884635 -1.9007876309410439 9.11782072120606" label_model=mpa-0 structure_key=58b508122fbf9ef9b35e8f8739500f7a91339f3f43ba416da1495baf93a49705 pbc="T T T"
Si      -0.02279584       0.01745016      -0.03373523       1.10867854      -0.56986923       0.68740219
Si       1.34720280       1.37185518       1.30592360      -0.50460225      -0.91527925       0.57895147
Si       0.00061911       2.68022137       2.64303736      -0.48721796      -0.70905173      -0.06025558
Si       1.31651685       3.95982721       3.93579305      -0.15365864       0.29029075       0.68733894
Si       2.63692130      -0.01390002       2.69523107       0.47692311       0.32510694      -0.78741247
Si       4.00345750       1.28959725       4.03001245      -0.80782431       1.12499710      -0.83649399
Si       2.60884825       2.67051066       0.01664700       0.74156845       0.07549629      -0.69890610
Si       3.99530557       3.97322687       1.28712946      -0.37386693       0.37830912       0.42937552
8
Lattice="5.3576 0.0 0.0 0.0 5.3576 0.0 0.0 0.0 5.3576" Properties=species:S:1:pos:R:3:forces:R:3 config_type=bulk energy=-43.07974143844213 virial="5.920985658422663 0.12027202210651526 0.09216108099982867 0.12027202210651526 5.935106613494099 -0.41853289628731566 0.09216108099982867 -0.41853289628731566 5.9073330096856775" label_model=mpa-0 structure_key=1f1ec2ea9c4d3710156dcb4d4b6108dbc82e21018c7c9f9ffe4f172fac109a4d pbc="T T T"
Si      -0.00832629      -0.01278042       0.00561206      -0.16488352       0.29420018       0.04064901
Si       1.35691008       1.37950379       1.30076061      -0.48390352      -0.55122145       0.51839024
Si      -0.00325717       2.70187565       2.65985890       0.12691414      -0.12589954       0.27255205
Si       1.35426089       4.02744066       4.05650258      -0.38247560       0.17863087      -0.66888945
Si       2.67614880       0.01366197       2.67807220      -0.20221363      -0.09679047      -0.19060561
Si       3.99581286       1.34190660       4.00282911       0.32237369       0.15052638       0.17002264
Si       2.64149148       2.69272940      -0.00380540       0.64892842      -0.17465500      -0.27054062
Si       3.98629685       3.99570805       1.32734500       0.13526001       0.32520904       0.12842175
8
Lattice="5.405866666666666 0.0 0.0 0.0 5.405866666666666 0.0 0.0 0.0 5.405866666666666" Properties=species:S:1:pos:R:3:forces:R:3 config_type=bulk energy=-43.21697709258622 virial="3.2277156726699325 0.012215608916939012 0.25376914340706574 0.012215608916939012 3.248393974989273 0.09605622120786576 0.25376914340706574 0.09605622120786576 3.2515267354635395" label_model=mpa-0 structure_key=c5bda7509e6b47a454d225af7f5c867bc2eb938d3e91a83439ce37e406e1eea7 pbc="T T T"
Si       0.02807120      -0.02246944       0.00362407      -0.19948980       0.23241058      -0.02974232
Si       1.35890037       1.35809573       1.36379713      -0.07795647      -0.08022916      -0.07758779
Si      -0.01439084       2.71079280       2.67348158       0.10824134      -0.16898984       0.56912680
Si       1.38409113       4.06840434       4.05018598      -0.34579197      -0.31649278      -0.09578778
Si       2.70937804       0.01716521       2.72712576      -0.01601402      -0.24151800      -0.47135813
Si       4.01812738       1.32840272       4.06299318       0.65145532       0.34469316       0.16577369
Si       2.70083146       2.70955820       0.01061098      -0.00212596      -0.09448596      -0.06839801
Si       4.05899809       4.04281614       1.34814090      -0.11831844       0.32461201       0.00797354
8
Lattice="5.454133333333333 0.0 0.0 0.0 5.454133333333333 0.0 0.0 0.0 5.454133333333333" Properties=species:S:1:pos:R:3:forces:R:3 config_type=bulk energy=-43.29129049139681 virial="0.6514319591849623 -0.16524563282205285 -0.17953282707651103 -0.16524563282205285 0.6741280966220752 -0.07199919676057787 -0.17953282707651103 -0.07199919676057787 0.6883136973941592" label_model=mpa-0 structure_key=0cd5daa1c7ec1a7f24afdb4b4c2e4af5842a2aaaf89ee67a74a0a70e6fc64f1b pbc="T T T"
Si       0.03035422      -0.02059767       0.00804995      -0.27223829      -0.00334674       0.00095416
Si       1.33677237       1.34862741       1.37779524       0.12547870       0.18775294       0.07131804
Si      -0.03583756       2.71951003       2.74900692       0.30474957       0.22532578      -0.16750649
Si       1.37914602       4.07903484       4.10387339      -0.04893322      -0.00165076      -0.24150953
Si       2.73463606       0.02710098       2.74069952      -0.05678813      -0.14381172       0.05563600
Si       4.11100381       1.37271151       4.11238381      -0.11644213      -0.26585433       0.09754093
Si       2.71258693       2.70073101      -0.00449869       0.09932476       0.13736418       0.30222041
Si       4.07719464       4.10287822       1.37628060      -0.03515126      -0.13577934      -0.11865351
8
Lattice="5.5024 0.0 0.0 0.0 5.5024 0.0 0.0 0.0 5.5024" Properties=species:S:1:pos:R:3:forces:R:3 config_type=bulk energy=-43.27241322851907 virial="-1.5966393549688018 0.11730392806388766 -0.34479910329739855 0.11730392806388766 -1.622445441759894 0.1337428916973538 -0.34479910329739855 0.1337428916973538 -1.6139228106212762" label_model=mpa-0 structure_key=90d9d88799ba16b383e792730928eace33951ea49b6b014202061d76dd1c305b pbc="T T T"
Si       0.01921965      -0.01854170      -0.02751153      -0.06887940       0.14249956       0.26247860
Si       1.38518372       1.39842451       1.36827847      -0.09130703      -0.27978966       0.03235280
Si      -0.00358072       2.73612816       2.76779268      -0.06680305       0.07155638      -0.19821028
Si       1.38474565       4.10682537       4.11400726      -0.02539588      -0.06134514       0.13060542
Si       2.73652000      -0.03550677       2.74591221       0.04525257       0.45244633       0.04333081
Si       4.13044607       1.36585221       4.13291352      -0.13306361      -0.09020283      -0.01718388
Si       2.77245892       2.77055274       0.02368486      -0.08964507      -0.19120529      -0.25122391
Si       4.10862893       4.13687182       1.38238344       0.42984148      -0.04395935      -0.00214957
8
Lattice="5.5506666666666655 0.0 0.0 0.0 5.5506666666666655 0.0 0.0 0.0 5.5506666666666655" Properties=species:S:1:pos:R:3:forces:R:3 config_type=bulk energy=-43.184557391613176 virial="-3.758231055796545 -0.2782383242852863 -0.26503500503321015 -0.2782383242852863 -3.779062494024674 -0.12391769763599873 -0.26503500503321015 -0.12391769763599873 -3.762541291794595" label_model=mpa-0 structure_key=7f7bda7f2d13148c72f77392f998e484e33b32d8c46f0a297594b59f0bc6f242 pbc="T T T"
Si       0.00735418      -0.00184435      -0.00890291      -0.08471282       0.05523251      -0.00351359
Si       1.41743454       1.39049336       1.35137428      -0.26857691      -0.14382285       0.28141638
Si      -0.03236493       2.77399720       2.73433273       0.40813621      -0.06122970       0.24543988
Si       1.38495517       4.15810916       4.16943416      -0.07187806      -0.05010487      -0.29644417
Si       2.78072562      -0.00905742       2.76505564       0.02359768       0.04708364       0.06336664
Si       4.14931984       1.42584768       4.17725741       0.23055718      -0.50138253      -0.37137824
Si       2.78353832       2.75207926      -0.02143781      -0.17060137       0.33068877       0.08398601
Si       4.16176717       4.13226148       1.36321539      -0.06652191       0.32353503      -0.00287293
8
Lattice="5.598933333333333 0.0 0.0 0.0 5.598933333333333 0.0 0.0 0.0 5.598933333333333" Properties=species:S:1:pos:R:3:forces:R:3 config_type=bulk energy=-43.06162122676047 virial="-5.92151509711033 -0.080577548425775 0.40122753865765226 -0.080577548425775 -5.888022071902013 -0.6144073072784858 0.40122753865765226 -0.6144073072784858 -5.892749949267242" label_model=mpa-0 structure_key=07130a9403de14fb5f47e1bd03170bb7cc54404ccd21017cb4ff489c2ba3bd06 pbc="T T T"
Si      -0.00069747       0.00532018       0.00459807       0.19399761      -0.09694496      -0.05722556
Si       1.41970978       1.38661732       1.42199205      -0.22670571       0.24343909      -0.31080817
Si      -0.00462450       2.82228697       2.76636080       0.25270111      -0.23705834       0.30540329
Si       1.41728821       4.21143947       4.17770384      -0.17247427      -0.10638492       0.22441535
Si       2.77208804       0.01086564       2.78994581       0.51502865      -0.16051670       0.10195615
Si       4.23359219       1.39140104       4.18539469      -0.28772501       0.15335193       0.03222474
Si       2.81397232       2.80229341       0.01272101       0.01468605      -0.13333212      -0.22206228
Si       4.21973730       4.17961002       1.39778235      -0.28950843       0.33744601      -0.07390351
8
Lattice="5.6472 0.0 0.0 0.0 5.6472 0.0 0.0 0.0 5.6472" Properties=species:S:1:pos:R:3:forces:R:3 config_type=bulk energy=-42.881689076241635 virial="-8.021963794457472 0.3878519011536982 0.13954247826996133 0.3878519011536982 -7.937410354472665 0.5741810706616638 0.13954247826996133 0.5741810706616638 -7.993441750534662" label_model=mpa-0 structure_key=6bbc806761a0e1adf0d8f7ef3fc2dcd8d976a702936eaacae11908d2dbd34141 pbc="T T T"
Si       0.00628957      -0.00670044       0.01206392      -0.07610867      -0.00772106      -0.35171898
Si       1.41163131       1.38816099       1.42419517       0.24205974      -0.04555096      -0.05285607
Si       0.01997589       2.80299168       2.79584022      -0.26242095      -0.00189986       0.09844843
Si       1.41085242       4.20025371       4.21952988       0.08521984       0.18710615       0.14706814
Si       2.87215440      -0.02593779       2.83568304      -0.47387212      -0.14048173      -0.25808483
Si       4.19611811       1.39492209       4.19878756       0.52787807       0.13579499       0.36037811
Si       2.82948794       2.81287567       0.00557534      -0.17683252      -0.12712888      -0.15308339
Si       4.24262675       4.21892436       1.37790528       0.13407661      -0.00011864       0.20984860
8
Lattice="5.2128 0.0 0.0 0.0 5.2128 0.0 0.0 0.0 5.2128" Properties=species:S:1:pos:R:3:forces:R:3 config_type=bulk energy=-41.92143055640255 virial="15.996540907997206 1.0972248566924876 -1.261967092065729 1.0972248566924876 15.73802482267071 -1.588047286765986 -1.261967092065729 -1.588047286765986 16.316807209031843" label_model=mpa-0 structure_key=909f90898f279f8934b96518b55964396e38af3155d04e2b7a490358b3c78361 pbc="T T T"
Si      -0.01726874      -0.05571496       0.01246283      -0.13083634       0.61778810       0.27026133
Si       1.30267060       1.36118831       1.31512611      -0.23931213      -0.64610101      -1.03346857
Si      -0.03319584       2.54255366       2.63093751       1.53463288       0.72526548       0.09051550
Si       1.29049612       3.90664013       3.88525476       0.12187269      -0.72690566       0.68270495
Si       2.52640508       0.03632963       2.62571920       1.10223922      -0.54735418      -0.60648946
Si       3.91847514       1.32976117       3.85976773      -0.56741237      -1.73430537       1.26935609
Si       2.68515516       2.59365404       0.01439072      -1.03297499       0.26658367      -0.61480334
Si       3.93944684       3.80060564       1.37021515      -0.78820896       2.04502897      -0.05807650
8
Lattice="5.261066666666666 0.0 0.0 0.0 5.261066666666666 0.0 0.0 0.0 5.261066666666666" Properties=species:S:1:pos:R:3:forces:R:3 config_type=bulk energy=-42.421021520863846 virial="12.282085106840807 0.9959385034067461 0.25323730851531845 0.9959385034067461 12.634145566403376 2.662658850244238 0.25323730851531845 2.662658850244238 12.369041108848533" label_model=mpa-0 structure_key=28d1cef5a8ba1ba943c7e8f902883e5e42b36bfdf7d0b11b91e1ab34890cefff pbc="T T T"
Si       0.01636961       0.01225252      -0.03941922      -0.82967132       0.59764133       1.31880055
Si       1.31868674       1.29677337       1.33879484      -0.02365846       0.50790607      -0.31536977
Si       0.03346130       2.61956265       2.70792317      -0.80820851       0.00351627      -1.44886623
Si       1.21751037       4.00317629       3.94478217       1.86441623      -0.61824392      -0.10092041
Si       2.62757147       0.01320230       2.64848061      -0.07474787      -0.60754540      -0.21756883
Si       3.94616732       1.29445195       3.92945327      -0.32915937       0.51850552       0.49104335
Si       2.62608689       2.66086950      -0.00256553      -0.59225534      -0.34040181      -0.49205497
Si       3.92057706       3.95554380       1.28125820       0.79328463      -0.06137805       0.76493632
8
Lattice="5.309333333333333 0.0 0.0 0.0 5.309333333333333 0.0 0.0 0.0 5.309333333333333" Properties=species:S:1:pos:R:3:forces:R:3 config_type=bulk energy=-42.131858532797324 virial="10.874485342223604 1.8525376248460617 2.2011663157675407 1.8525376248460617 10.67818049089425 -4.412208387143508 2.2011663157675407 -4.412208387143508 10.24036659706658" label_model=mpa-0 structure_key=1efb40f862568d41e6cca212347cad537f4d22c0bb9e312d41d85607060b559f pbc="T T T"
Si      -0.04559168       0.03490032      -0.06747047       2.65550986      -1.57699878       1.73241694
Si       1.36707227       1.41637704       1.28451386      -1.23077843      -2.06066864       1.41292911
Si       0.00123822       2.70577607       2.63140806      -1.05030167      -1.51046898      -0.23385546
Si       1.30570037       3.93765441       3.88958609      -0.24007120       0.56455137       1.53882322
Si       2.61917593      -0.02780004       2.73579546       1.05653760       0.79346645      -1.60350424
Si       4.02491500       1.25186116       4.07802490      -2.12751306       2.66451091      -2.07074059
Si       2.56302983       2.68635466       0.03329400       1.65654211       0.42681538      -1.60127093
Si       4.00861114       3.96445374       1.24692558      -0.71992521       0.69879227       0.82520195
8
Lattice="5.3576 0.0 0.0 0.0 5.3576 0.0 0.0 0.0 5.3576" Properties=species:S:1:pos:R:3:forces:R:3 config_type=bulk energy=-42.857818255218014 virial="6.4525290985171715 0.2910695063738266 0.1743698022600339 0.2910695063738266 6.544813660172418 -1.1047353542952794 0.1743698022600339 -1.1047353542952794 6.4117861616601655" label_model=mpa-0 structure_key=f1393d7eb1439495d8dac780cdb5a41568e91bff12b2439e6e7fe73dd3d789da pbc="T T T"
Si      -0.01665257      -0.02556085       0.01122412      -0.33331133       0.60440180       0.09276365
Si       1.37442015       1.41960759       1.26212123      -1.12733161      -1.27871753       1.20126926
Si      -0.00651433       2.72495130       2.64091780       0.26570050      -0.26185076       0.54344210
Si       1.36912178       4.03668133       4.09480516      -0.83341323       0.48313815      -1.45109490
Si       2.67349759       0.02732393       2.67734441      -0.42299277      -0.23114937      -0.41531727
Si       3.97342573       1.34441320       3.98745822       0.65786590       0.34040832       0.37608175
Si       2.60418296       2.70665880      -0.00761080       1.51484749      -0.32381913      -0.62055040
Si       3.95439370       3.97321610       1.31529000       0.27863505       0.66758852       0.27340581
8
Lattice="5.405866666666666 0.0 0.0 0.0 5.405866666666666 0.0 0.0 0.0 5.405866666666666" Properties=species:S:1:pos:R:3:forces:R:3 config_type=bulk energy=-43.062207803500215 virial="3.6075712687595547 0.12523907729629533 0.6556258768655018 0.12523907729629533 3.690032109404476 0.24405891287559242 0.6556258768655018 0.24405891287559242 3.7104814328857136" label_model=mpa-0 structure_key=3980b68d7ab78c97775bad2e263cba6135e2a63086df897da91e7f5d4ab67a8e pbc="T T T"
Si       0.05614241      -0.04493888       0.00724814      -0.41614773       0.46906465      -0.04196975
Si       1.36633407       1.36472479       1.37612759      -0.15212658      -0.17312965      -0.15725002
Si      -0.02878168       2.71865227       2.64402983       0.26619806      -0.38647373       1.17495373
Si       1.41671559       4.08240868       4.04597196      -0.70774748      -0.65996274      -0.17318285
Si       2.71582274       0.03433042       2.75131819      -0.10844075      -0.55074544      -1.08679474
Si       3.98185475       1.30533878       4.07158637       1.39919798       0.78699384       0.45405149
Si       2.69872958       2.71618307       0.02122197      -0.00911465      -0.19666650      -0.14532296
Si       4.06359619       4.03123229       1.34481513      -0.27181886       0.71091956      -0.02448489
8
Lattice="5.454133333333333 0.0 0.0 0.0 5.454133333333333 0.0 0.0 0.0 5.454133333333333" Properties=species:S:1:pos:R:3:forces:R:3 config_type=bulk energy=-43.2168456837312 virial="0.6606083459381646 -0.3171986379712614 -0.3974897131092318 -0.3171986379712614 0.765837082555227 -0.17850197959315672 -0.3974897131092318 -0.17850197959315672 0.8210161283719823" label_model=mpa-0 structure_key=9ab2f1a033d36f2c80eaf73f3d8ba77ca22bb85d11bf2467ce5bc685245eb5d6 pbc="T T T"
Si       0.06070845      -0.04119534       0.01609991      -0.56265324      -0.01393398      -0.00008682
Si       1.31001140       1.33372149       1.39205715       0.25823555       0.38518572       0.15931316
Si      -0.07167512       2.71195340       2.77094717       0.63938500       0.49363915      -0.38225763
Si       1.39475871       4.06746968       4.11714679      -0.10083660       0.00121180      -0.49850790
Si       2.74220545       0.05420196       2.75433238      -0.11242544      -0.28218580       0.10891832
Si       4.13140761       1.38188968       4.13416762      -0.25497835      -0.57635442       0.24077026
Si       2.69810720       2.67439536      -0.00899738       0.19041288       0.25976390       0.60741942
Si       4.06378928       4.11515643       1.38902787      -0.05713981      -0.26732638      -0.23556879
8
Lattice="5.5024 0.0 0.0 0.0 5.5024 0.0 0.0 0.0 5.5024" Properties=species:S:1:pos:R:3:forces:R:3 config_type=bulk energy=-43.18010726936005 virial="-1.4216067404001784 0.28895459984886884 -0.7287502233944407 0.28895459984886884 -1.5226286161230604 0.3233899606135103 -0.7287502233944407 0.3233899606135103 -1.4907131076243332" label_model=mpa-0 structure_key=8fd045cce65ee94c5f2504b4155062adbb484786410ffc9d3a955a44396c4f68 pbc="T T T"
Si       0.03843930      -0.03708340      -0.05502306      -0.14906276       0.29526601       0.53561528
Si       1.39476743       1.42124901       1.36095694      -0.18557264      -0.57281152       0.07260187
Si      -0.00716144       2.72105633       2.78438536      -0.13351372       0.14786409      -0.40732456
Si       1.39389129       4.08685073       4.10121452      -0.05292423      -0.15057965       0.28228710
Si       2.72184000      -0.07101354       2.74062441       0.07128290       0.95716995       0.09370574
Si       4.13409213       1.35610443       4.13902704      -0.27333764      -0.18424883      -0.02575384
Si       2.79371784       2.78990547       0.04736972      -0.20710961      -0.41204523      -0.54511812
Si       4.09045786       4.14694365       1.38916689       0.93023771      -0.08061482      -0.00601348
8
Lattice="5.5506666666666655 0.0 0.0 0.0 5.5506666666666655 0.0 0.0 0.0 5.5506666666666655" Properties=species:S:1:pos:R:3:forces:R:3 config_type=bulk energy=-43.03651877219364 virial="-3.491652877301554 -0.7272153272769807 -0.6782462345691278 -0.7272153272769807 -3.595800608509059 -0.23022674785888803 -0.6782462345691278 -0.23022674785888803 -3.510111231635524" label_model=mpa-0 structure_key=52443cc8e1b4f420349ccadcd2a139619602f68df9d2ec0079ca2b4a86c2bd21 pbc="T T T"
Si       0.01470837      -0.00368871      -0.01780582      -0.18799928       0.12448420      -0.00054347
Si       1.44720241       1.39332005       1.31508189      -0.57425790      -0.32101178       0.60444345
Si      -0.06472986       2.77266107       2.69333212       0.87063653      -0.17652337       0.54832566
Si       1.38224367       4.15321832       4.17586833      -0.13724085      -0.11204778      -0.60734739
Si       2.78611791      -0.01811484       2.75477795       0.05093560       0.10475835       0.13124879
Si       4.13563968       1.46402869       4.19151482       0.59484024      -1.11997994      -0.86587753
Si       2.79174331       2.72882518      -0.04287561      -0.44074056       0.79445167       0.24021751
Si       4.16053434       4.10152296       1.33876411      -0.17617378       0.70586865      -0.05046702
8
Lattice="5.598933333333333 0.0 0.0 0.0 5.598933333333333 0.0 0.0 0.0 5.598933333333333" Properties=species:S:1:pos:R:3:forces:R:3 config_type=bulk energy=-42.92657462832642 virial="-5.859621570859748 -0.2761586014902707 0.9940053515192492 -0.2761586014902707 -5.719956671465975 -1.4873231324382619 0.9940053515192492 -1.4873231324382619 -5.739872069796062" label_model=mpa-0 structure_key=f6be0bfa96f2c42b243897c19bc1b2745cc88c1bb474a4372e34fc8644476bcd pbc="T T T"
Si      -0.00139495       0.01064035       0.00919614       0.40609512      -0.20394341      -0.10222665
Si       1.43968624       1.37350131       1.44425076      -0.53540713       0.57405013      -0.70175646
Si      -0.00924899       2.84510727       2.73325493       0.58724368      -0.54788761       0.68614585
Si       1.43484309       4.22367893       4.15620769      -0.37865919      -0.24172144       0.47689760
Si       2.74470941       0.02173128       2.78042495       1.14361371      -0.37400604       0.26137397
Si       4.26798439       1.38306876       4.17158939      -0.59837313       0.31773299       0.04149223
Si       2.82847797       2.80512015       0.02544203       0.02337924      -0.28280053      -0.45661517
Si       4.24027460       4.16002005       1.39583137      -0.64789229       0.75857591      -0.20531136
8
Lattice="5.6472 0.0 0.0 0.0 5.6472 0.0 0.0 0.0 5.6472" Properties=species:S:1:pos:R:3:forces:R:3 config_type=bulk energy=-42.746343568810715 virial="-8.121096375101223 0.9278401137423524 0.34651745352283614 0.9278401137423524 -7.746284512467959 1.3608847567270597 0.34651745352283614 1.3608847567270597 -7.998182612794162" label_model=mpa-0 structure_key=ac46c0b096c2b126f08a39378eebacadb6685c7a0f285e07f64b37cc4337342d pbc="T T T"
Si       0.01257915      -0.01340087       0.02412785      -0.15754189      -0.01443996      -0.73255762
Si       1.41146262       1.36452197       1.43659035       0.52063374      -0.11097165      -0.11099569
Si       0.03995179       2.78238336       2.76808044      -0.56142984       0.00797284       0.20952286
Si       1.40990484       4.16510743       4.20365977       0.18374973       0.39646954       0.30193915
Si       2.92070880      -0.05187559       2.84776608      -1.03388071      -0.40600692      -0.60620558
Si       4.15683622       1.37804419       4.16217511       1.14529571       0.40007592       0.81532558
Si       2.83537588       2.80215134       0.01115068      -0.37047902      -0.27897566      -0.31793046
Si       4.24985350       4.20244871       1.34401056       0.27365228       0.00587588       0.44090175
8
Lattice="5.2128 0.0 0.0 0.0 5.2128 0.0 0.0 0.0 5.2128" Properties=species:S:1:pos:R:3:forces:R:3 config_type=bulk energy=-41.43681019809834 virial="16.67909058225419 1.6068721457775987 -1.9491804223710496 1.6068721457775987 16.113263838227695 -2.6079814819686318 -1.9491804223710496 -2.6079814819686318 17.36462034476658" label_model=mpa-0 structure_key=80c8081971bc3e7217be94453d0294073679f93f20284a976a4f9c4bcda2ef39 pbc="T T T"
Si      -0.02590311      -0.08357244       0.01869424      -0.18042490       0.88634859       0.39182337
Si       1.30240591       1.39018246       1.32108916      -0.30624085      -0.90169324      -1.52032178
Si      -0.04979376       2.51063049       2.64320627       2.59785079       1.13523537       0.06472666
Si       1.28414417       3.90516020       3.87308215       0.13564938      -1.08249979       0.97436926
Si       2.48640762       0.05449444       2.63537880       1.59421168      -0.72311248      -0.78096486
Si       3.92291271       1.34304175       3.83485159      -1.11848563      -2.74718736       2.03713224
Si       2.72453274       2.58728106       0.02158607      -1.52883321       0.33127132      -0.90260109
Si       3.95437026       3.74610846       1.40372273      -1.19372726       3.10163759      -0.26416379
8
Lattice="5.261066666666666 0.0 0.0 0.0 5.261066666666666 0.0 0.0 0.0 5.261066666666666" Properties=species:S:1:pos:R:3:forces:R:3 config_type=bulk energy=-42.09456674128157 virial="12.687061389194042 1.339888766593405 0.3482800854071744 1.339888766593405 13.542243874012406 4.209006924187527 0.3482800854071744 4.209006924187527 12.919791038612622" label_model=mpa-0 structure_key=f188b45fdac1c795cb06eaa602928d0c2c420f2fc68060216833b17407844b82 pbc="T T T"
Si       0.02455441       0.01837879      -0.05912884      -1.35478892       1.07158844       2.16811912
Si       1.32039678       1.28752672       1.35055892      -0.06472694       0.77341932      -0.48104145
Si       0.05019195       2.61407730       2.74661809      -1.14787669      -0.13888023      -2.14378366
Si       1.16863222       4.03186443       3.94427326       2.92240499      -0.99696405      -0.35350406
Si       2.62609054       0.01980344       2.65745424      -0.13285798      -0.95419360      -0.32172813
Si       3.94635098       1.28404460       3.92127990      -0.48364181       0.79382577       0.73943617
Si       2.62386366       2.67603758      -0.00384830      -0.90536834      -0.55728913      -0.74398802
Si       3.90796558       3.96041570       1.26425397       1.16685568       0.00849348       1.13649003
8
Lattice="5.309333333333333 0.0 0.0 0.0 5.309333333333333 0.0 0.0 0.0 5.309333333333333" Properties=species:S:1:pos:R:3:forces:R:3 config_type=bulk energy=-40.95079188619037 virial="13.018884342834005 2.633155010271442 3.518081035732967 2.633155010271442 12.64831770219919 -7.187678222975682 3.518081035732967 -7.187678222975682 11.470473389622608" label_model=mpa-0 structure_key=5f8a97ad293c42c43ccbb471728d50de9f4583b55cabb0bf1823823302cd65c7 pbc="T T T"
Si      -0.06838752       0.05235048      -0.10120570       4.55731553      -3.00849067       3.10357201
Si       1.38694174       1.46089889       1.26310412      -2.11008797      -3.36572746       2.46819338
Si       0.00185733       2.73133076       2.61977875      -1.67110163      -2.32251075      -0.53932293
Si       1.29488389       3.91548162       3.84337914      -0.19350961       0.78510645       2.47353441
Si       2.60143057      -0.04170007       2.77635986       1.67576735       1.36546579      -2.35146082
Si       4.04637250       1.21412507       4.12603735      -3.91310452       4.52537863      -3.65979271
Si       2.51721141       2.70219866       0.04994100       2.64979814       1.10328602      -2.64280500
Si       4.02191671       3.95568060       1.20672171      -0.99507728       0.91749199       1.14808166
8
Lattice="5.3576 0.0 0.0 0.0 5.3576 0.0 0.0 0.0 5.3576" Properties=species:S:1:pos:R:3:forces:R:3 config_type=bulk energy=-42.449046184205976 virial="7.196316291894387 0.5185968906422169 0.24551148899231598 0.5185968906422169 7.496164832505882 -2.052438999929393 0.24551148899231598 -2.052438999929393 7.139690892973059" label_model=mpa-0 structure_key=161fe628629226f789058b6bf7683fffc0503b0e1f22920264789c5b0595e8b1 pbc="T T T"
Si      -0.02497886      -0.03834127       0.01683618      -0.50977104       0.93308978       0.15287294
Si       1.39193023       1.45971138       1.22348184      -1.93978136      -2.20953500       2.07333066
Si      -0.00977150       2.74802695       2.62197671       0.41721550      -0.40973473       0.81478471
Si       1.38398267       4.04592199       4.13310773      -1.34660266       0.92996262      -2.35010554
Si       2.67084639       0.04098590       2.67661661      -0.67845848      -0.41457889      -0.68415926
Si       3.95103859       1.34691979       3.97208733       1.02782898       0.57513138       0.62413614
Si       2.56687444       2.72058820      -0.01141620       2.60126937      -0.42913046      -1.06082400
Si       3.92249055       3.95072414       1.30323501       0.42829969       1.02479531       0.42996435
8
Lattice="5.405866666666666 0.0 0.0 0.0 5.405866666666666 0.0 0.0 0.0 5.405866666666666" Properties=species:S:1:pos:R:3:forces:R:3 config_type=bulk energy=-42.783870530774934 virial="4.182491661142075 0.33747139477740395 1.2382983327383614 0.33747139477740395 4.369243194172245 0.4538336478100113 1.2382983327383614 0.4538336478100113 4.434779290597149" label_model=mpa-0 structure_key=1747c44426532ab928a9342ad89afa6d43344d349f3e7979ef441e74a41c7703 pbc="T T T"
Si       0.08421361      -0.06740832       0.01087221      -0.65596938       0.71595207      -0.03697897
Si       1.37376777       1.37135385       1.38845805      -0.22367488      -0.28159398      -0.23735992
Si      -0.04317252       2.72651174       2.61457808       0.48833232      -0.66648150       1.83934538
Si       1.44934006       4.09641302       4.04175794      -1.09138441      -1.04387301      -0.23740038
Si       2.72226745       0.05149562       2.77551062      -0.29458014      -0.94134624      -1.88143263
Si       3.94558213       1.28227484       4.08017955       2.26797852       1.35239273       0.90004834
Si       2.69662771       2.72280794       0.03183295      -0.01837641      -0.30917420      -0.23765664
Si       4.06819428       4.01964843       1.34148936      -0.47232562       1.17412413      -0.10856518
8
Lattice="5.454133333333333 0.0 0.0 0.0 5.454133333333333 0.0 0.0 0.0 5.454133333333333" Properties=species:S:1:pos:R:3:forces:R:3 config_type=bulk energy=-43.08885072029711 virial="0.6640568438469854 -0.4626149664143817 -0.6779098730622846 -0.4626149664143817 0.9354019617709292 -0.34012868414621106 -0.6779098730622846 -0.34012868414621106 1.0587045324998754" label_model=mpa-0 structure_key=202d3fd534d730f1c16f4cd1db5105d610fed4abf1e5a7fa03af5727ea4ed563 pbc="T T T"
Si       0.09106267      -0.06179301       0.02414986      -0.87878244      -0.03203791      -0.00411845
Si       1.28325044       1.31881557       1.40631906       0.39869318       0.60049256       0.26978502
Si      -0.10751269       2.70439677       2.79288743       1.01865436       0.82488167      -0.66320213
Si       1.41037140       4.05590452       4.13042018      -0.15616673       0.00707223      -0.78446914
Si       2.74977484       0.08130294       2.76796524      -0.16849779      -0.41508581       0.16332585
Si       4.15181142       1.39106785       4.15595143      -0.42245493      -0.95113565       0.45040586
Si       2.68362747       2.64805970      -0.01349606       0.27718660       0.36570906       0.92561909
Si       4.05038392       4.12743465       1.40177515      -0.06863224      -0.39989614      -0.35734610
8
Lattice="5.5024 0.0 0.0 0.0 5.5024 0.0 0.0 0.0 5.5024" Properties=species:S:1:pos:R:3:forces:R:3 config_type=bulk energy=-43.01730039335816 virial="-1.1171149239733562 0.5345275229609433 -1.1953283355523732 0.5345275229609433 -1.340461873444638 0.5956389877731216 -1.1953283355523732 0.5956389877731216 -1.2705858038844526" label_model=mpa-0 structure_key=2a67f40b3e749c1b1c21ed43c1cbd94ee01c02ae16fb20db5e06326078579c95 pbc="T T T"
Si       0.05765895      -0.05562510      -0.08253458      -0.24177484       0.46224928       0.83030443
Si       1.40435115       1.44407352       1.35363541      -0.28721867      -0.88938013       0.12221331
Si      -0.01074216       2.70598449       2.80097803      -0.20347647       0.23515123      -0.63717301
Si       1.40303694       4.06687610       4.08842178      -0.08225479      -0.28060584       0.46432467
Si       2.70715999      -0.10652031       2.73533662       0.07149115       1.54104939       0.15684260
Si       4.13773820       1.34635664       4.14514055      -0.43263292      -0.28776433      -0.02460716
Si       2.81497676       2.80925821       0.07105458      -0.36238251      -0.67748749      -0.90454058
Si       4.07228678       4.15701547       1.39595033       1.53824904      -0.10321211      -0.00736426
8
Lattice="5.5506666666666655 0.0 0.0 0.0 5.5506666666666655 0.0 0.0 0.0 5.5506666666666655" Properties=species:S:1:pos:R:3:forces:R:3 config_type=bulk energy=-42.758131102978766 virial="-2.951668878059046 -1.432519936034651 -1.3062434480422733 -1.432519936034651 -3.2504167002240596 -0.3037799613747446 -1.3062434480422733 -0.3037799613747446 -2.9954421374650346" label_model=mpa-0 structure_key=a3aa2194339ccf808144162b1e3f53f3a4cc4890b8b0d25269a8d6a7d026c9a3 pbc="T T T"
Si       0.02206255      -0.00553306      -0.02670873      -0.31924920       0.21500189       0.01152289
Si       1.47697029       1.39614674       1.27878950      -0.93430144      -0.54532209       0.99054238
Si      -0.09709479       2.77132494       2.65233151       1.41418749      -0.37938735       0.94235643
Si       1.37953216       4.14832748       4.18230249      -0.19287483      -0.19344205      -0.93843945
Si       2.79151020      -0.02717227       2.74450026       0.08586250       0.17449054       0.20374112
Si       4.12195952       1.50220970       4.20577223       1.17240774      -1.90959348      -1.55304404
Si       2.79994830       2.70557111      -0.06431342      -0.86904842       1.46011570       0.51514638
Si       4.15930151       4.07078444       1.31431283      -0.35698382       1.17813684      -0.17182572
8
Lattice="5.598933333333333 0.0 0.0 0.0 5.598933333333333 0.0 0.0 0.0 5.598933333333333" Properties=species:S:1:pos:R:3:forces:R:3 config_type=bulk energy=-42.67329480574578 virial="-5.640692522522826 -0.6783245273137981 1.8868481656697307 -0.6783245273137981 -5.310116134590263 -2.766489130955772 1.8868481656697307 -2.766489130955772 -5.358238747330704" label_model=mpa-0 structure_key=faa7df19199e92cc856bb7588eed4155b94227ea052d497d1b2775bb3b6bbc37 pbc="T T T"
Si      -0.00209242       0.01596053       0.01379422       0.64597885      -0.32712155      -0.12782004
Si       1.45966269       1.36038530       1.46650947      -0.97528244       1.04749052      -1.22262744
Si      -0.01387349       2.86792757       2.70014906       1.05771083      -0.97734912       1.18863019
Si       1.45239796       4.23591840       4.13471153      -0.63404059      -0.42302150       0.77381600
Si       2.71733079       0.03259693       2.77090409       1.93988731      -0.67262982       0.51642608
Si       4.30237658       1.37473647       4.15778408      -0.94007269       0.50064574       0.01992990
Si       2.84298363       2.80794689       0.03816304       0.01948525      -0.45637843      -0.71184431
Si       4.26081191       4.14043007       1.39388038      -1.11366651       1.30836416      -0.43651038
8
Lattice="5.6472 0.0 0.0 0.0 5.6472 0.0 0.0 0.0 5.6472" Properties=species:S:1:pos:R:3:forces:R:3 config_type=bulk energy=-42.500445306923105 virial="-8.201457884663766 1.6799523190953487 0.6774450835163404 1.6799523190953487 -7.243547537293233 2.466792039933809 0.6774450835163404 2.466792039933809 -7.898832532332759" label_model=mpa-0 structure_key=e48a576fefa5700d3b961b608f2bef52249d973faa55c575764a16f052626ac8 pbc="T T T"
Si       0.01886872      -0.02010131       0.03619177      -0.23453748      -0.02021238      -1.14471782
Si       1.41129394       1.34088296       1.44898552       0.85254820      -0.20761234      -0.18165301
Si       0.05992768       2.76177505       2.74032066      -0.91333792       0.04151385       0.33916254
Si       1.40895725       4.12996114       4.18778965       0.29796963       0.63334557       0.46717068
Si       2.96926320      -0.07781338       2.85984912      -1.71492189      -0.88011635      -1.09478181
Si       4.11755434       1.36116628       4.12556267       1.87958563       0.88017051       1.40873666
Si       2.84126381       2.79142700       0.01672602      -0.58902291      -0.46619191      -0.49822834
Si       4.25708025       4.18597307       1.31011585       0.42171673       0.01910305       0.70431109
8
Lattice="5.2128 0.0 0.0 0.0 5.2128 0.0 0.0 0.0 5.2128" Properties=species:S:1:pos:R:3:forces:R:3 config_type=bulk energy=-40.745249245408004 virial="17.567104988662607 2.0494276346135076 -2.6656350309040437 2.0494276346135076 16.585213979031273 -3.808147335687007 -2.6656350309040437 -3.808147335687007 18.69815309023445" label_model=mpa-0 structure_key=bfa885652992a353cce02f73bc019d562500d382643f56dcaafe6ba452b22209 pbc="T T T"
Si      -0.03453748      -0.11142992       0.02492565      -0.21915315       1.12432746       0.50868092
Si       1.30214121       1.41917662       1.32705222      -0.33484965      -1.10868493      -1.98175559
Si      -0.06639168       2.47870732       2.65547502       3.89676781       1.57704321      -0.02370863
Si       1.27779223       3.90368027       3.86090953       0.12726510      -1.42728261       1.22853403
Si       2.44641016       0.07265926       2.64503839       2.03870346      -0.83583757      -0.88059975
Si       3.92735028       1.35632233       3.80993546      -1.88083495      -3.86597033       2.91788159
Si       2.76391033       2.58090809       0.02878143      -2.00178234       0.35740819      -1.17161863
Si       3.96929368       3.69161127       1.43723031      -1.62611628       4.17899660      -0.59741395
8
Lattice="5.261066666666666 0.0 0.0 0.0 5.261066666666666 0.0 0.0 0.0 5.261066666666666" Properties=species:S:1:pos:R:3:forces:R:3 config_type=bulk energy=-41.628837063051144 virial="13.072450593012535 1.5543925108690073 0.41388649995917587 1.5543925108690073 14.679195572414928 5.851572198238301 0.41388649995917587 5.851572198238301 13.545879533091336" label_model=mpa-0 structure_key=17e95446d943c4702b5d3373c8269f5103e124b9e0c2b36c1d04fff6eb84f405 pbc="T T T"
Si       0.03273921       0.02450505      -0.07883845      -1.94139993       1.67217539       3.14787056
Si       1.32210682       1.27828007       1.36232301      -0.12861365       1.04453254      -0.65183354
Si       0.06692261       2.60859196       2.78531302      -1.42333253      -0.36320657      -2.78499204
Si       1.11975407       4.06055257       3.94376435       4.01798506      -1.44546347      -0.77221076
Si       2.62460961       0.02640459       2.66642788      -0.19609558      -1.32019015      -0.42404332
Si       3.94653464       1.27363724       3.91310653      -0.62796102       1.07966242       0.98243233
Si       2.62164044       2.69120566      -0.00513106      -1.21551280      -0.80883814      -0.99117742
Si       3.89535411       3.96528760       1.24724973       1.51493044       0.14132799       1.49395419
8
Lattice="5.309333333333333 0.0 0.0 0.0 5.309333333333333 0.0 0.0 0.0 5.309333333333333" Properties=species:S:1:pos:R:3:forces:R:3 config_type=bulk energy=-39.13629986290201 virial="16.030055887247517 3.009305597254412 5.114709055564059 3.009305597254412 15.492063231824456 -10.394960634000903 5.114709055564059 -10.394960634000903 13.076774962391257" label_model=mpa-0 structure_key=0254ec316254e155362cc8a6a1bd3df321f89b452df750336aa497726f537af5 pbc="T T T"
Si      -0.09118336       0.06980064      -0.13494094       7.06344687      -5.09229356       4.95803018
Si       1.40681121       1.50542074       1.24169438      -3.14448978      -4.84549423       3.75799503
Si       0.00247644       2.75688546       2.60814945      -2.36466651      -3.12141462      -0.98557869
Si       1.28406741       3.89330883       3.79717218       0.00584277       0.96820412       3.46052913
Si       2.58368520      -0.05560009       2.81692426       2.29825653       1.99698598      -2.98499153
Si       4.06783000       1.17638899       4.17404980      -6.40109374       6.93885614      -5.74781241
Si       2.47139299       2.71804266       0.06658800       3.74113351       2.14121700      -3.85340983
Si       4.03522229       3.94690747       1.16651784      -1.19842964       1.01393918       1.39523812
8
Lattice="5.3576 0.0 0.0 0.0 5.3576 0.0 0.0 0.0 5.3576" Properties=species:S:1:pos:R:3:forces:R:3 config_type=bulk energy=-41.823945068254716 virial="8.05585131172341 0.7972754560692227 0.3297376344572624 0.7972754560692227 8.75151143000643 -3.207048821382987 0.3297376344572624 -3.207048821382987 8.023721915416495" label_model=mpa-0 structure_key=17748622512902b68e0d45f91527ec3fa45672a70bdda8b5088de9223d5578b9 pbc="T T T"
Si      -0.03330514      -0.05112169       0.02244824      -0.69600991       1.25863300       0.20929610
Si       1.40944030       1.49981517       1.18484245      -2.88984979      -3.32564105       3.11843267
Si      -0.01302867       2.77110260       2.60303561       0.56150622      -0.56457586       1.07160666
Si       1.39884356       4.05516266       4.17141031      -1.89933252       1.52969429      -3.32966886
Si       2.66819518       0.05464787       2.67588882      -0.95886431      -0.65007385      -0.98702318
Si       3.92865146       1.34942639       3.95671644       1.43146531       0.84650315       0.90381396
Si       2.52956592       2.73451760      -0.01522160       3.86196283      -0.48192557      -1.58357154
Si       3.89058740       3.92823219       1.29118001       0.58912217       1.38738588       0.59711419
8
Lattice="5.405866666666666 0.0 0.0 0.0 5.405866666666666 0.0 0.0 0.0 5.405866666666666" Properties=species:S:1:pos:R:3:forces:R:3 config_type=bulk energy=-42.3667654779787 virial="4.870873488980043 0.6358436256276744 1.95657494179722 0.6358436256276744 5.197328878306574 0.6876837056185158 1.95657494179722 0.6876837056185158 5.351498688130467" label_model=mpa-0 structure_key=bedb80af7567c9a43e4a675ce6b21f7854a4d607c265bf20e40225b3b315fe8e pbc="T T T"
Si       0.11228482      -0.08987775       0.01449629      -0.90341481       0.95961998      -0.00757230
Si       1.38120147       1.37798291       1.40078851      -0.29609606      -0.40047177      -0.31219426
Si      -0.05756336       2.73437121       2.58512633       0.77991196      -0.99490844       2.51062894
Si       1.48196452       4.11041736       4.03754392      -1.47361687      -1.44871830      -0.27712888
Si       2.72871215       0.06866083       2.79970304      -0.56768401      -1.38361773      -2.81941463
Si       3.90930951       1.25921089       4.08877274       3.19367626       2.00690058       1.49995076
Si       2.69452583       2.72943281       0.04244393      -0.02623818      -0.42638737      -0.34688173
Si       4.07279238       4.00806458       1.33816359      -0.70653829       1.68758305      -0.24738791
8
Lattice="5.454133333333333 0.0 0.0 0.0 5.454133333333333 0.0 0.0 0.0 5.454133333333333" Properties=species:S:1:pos:R:3:forces:R:3 config_type=bulk energy=-42.90289837244232 virial="0.6408653132572706 -0.6046536002573284 -1.0260870960790263 -0.6046536002573284 1.186774129733026 -0.5642977466156334 -1.0260870960790263 -0.5642977466156334 1.4075784488392147" label_model=mpa-0 structure_key=f8cb953135ab7adb272aa33805809ab9c3010f1da8edb73eb2f116be9ea943da pbc="T T T"
Si       0.12141690      -0.08239068       0.03219981      -1.22262189      -0.05752661      -0.01000672
Si       1.25648947       1.30390965       1.42058096       0.54660423       0.83684131       0.40575345
Si      -0.14335025       2.69684013       2.81482768       1.44416617       1.22794132      -1.02408701
Si       1.42598409       4.04433936       4.14369357      -0.21324666       0.01678523      -1.10294124
Si       2.75734423       0.10840393       2.78159810      -0.22607504      -0.54214897       0.21955093
Si       4.17221522       1.40024603       4.17773524      -0.62124742      -1.39711606       0.74066756
Si       2.66914773       2.62172405      -0.01799475       0.36022376       0.45005917       1.25631665
Si       4.03697856       4.13971287       1.41452242      -0.06780314      -0.53483539      -0.48525361
8
Lattice="5.5024 0.0 0.0 0.0 5.5024 0.0 0.0 0.0 5.5024" Properties=species:S:1:pos:R:3:forces:R:3 config_type=bulk energy=-42.77448468409246 virial="-0.6787075394591706 0.8672004837641423 -1.7467200700376446 0.8672004837641423 -1.0675662581219718 0.9480726971857228 -1.7467200700376446 0.9480726971857228 -0.9420079916058457" label_model=mpa-0 structure_key=23e7efe4ffa11b623bd66dbd3cc8038711b212444cfc2d3e934c6cb6f8837c57 pbc="T T T"
Si       0.07687859      -0.07416680      -0.11004611      -0.34642510       0.64569128       1.14376182
Si       1.41393486       1.46689802       1.34631388      -0.39854478      -1.22614729       0.18118609
Si      -0.01432288       2.69091265       2.81757071      -0.27097909       0.33158712      -0.88657335
Si       1.41218258       4.04690146       4.07562903      -0.11177317      -0.45482624       0.67975981
Si       2.69247999      -0.14202708       2.73004882       0.04451468       2.19694109       0.22939389
Si       4.14138427       1.33660886       4.15125407      -0.61039108      -0.39887631      -0.00929014
Si       2.83623568       2.82861095       0.09473944      -0.55936946      -0.99443679      -1.33695934
Si       4.05411571       4.16708730       1.40273377       2.25296801      -0.09993288      -0.00127878
8
Lattice="5.5506666666666655 0.0 0.0 0.0 5.5506666666666655 0.0 0.0 0.0 5.5506666666666655" Properties=species:S:1:pos:R:3:forces:R:3 config_type=bulk energy=-42.31784709534254 virial="-2.1132253848382847 -2.3531340908311664 -2.081584965635182 -2.3531340908311664 -2.7664353732456597 -0.3360183184085015 -2.081584965635182 -0.3360183184085015 -2.1950713109567896" label_model=mpa-0 structure_key=f4b4a3f81895715fc23b24f4ce91b810fcb9bcd4244bceed1731b851ef8f5a43 pbc="T T T"
Si       0.02941673      -0.00737742      -0.03561164      -0.46847432       0.31849632       0.03632755
Si       1.50673816       1.39897343       1.24249711      -1.33903822      -0.81611290       1.42971880
Si      -0.12945972       2.76998880       2.61133090       2.01496287      -0.68582360       1.42831774
Si       1.37682066       4.14343664       4.18873665      -0.22675160      -0.28180349      -1.26738996
Si       2.79690249      -0.03622969       2.73422256       0.11739753       0.24418613       0.26448144
Si       4.10827936       1.54039071       4.22002964       1.97549340      -2.82193636      -2.42303530
Si       2.80815328       2.68231703      -0.08575123      -1.45846680       2.30673913       0.90847968
Si       4.15806868       4.04004592       1.28986155      -0.61512286       1.73625477      -0.37689995
8
Lattice="5.598933333333333 0.0 0.0 0.0 5.598933333333333 0.0 0.0 0.0 5.598933333333333" Properties=species:S:1:pos:R:3:forces:R:3 config_type=bulk energy=-42.27262476975014 virial="-5.214297367142044 -1.318583581970643 3.0445214749499407 -1.318583581970643 -4.604033416333575 -4.38012177831477 3.0445214749499407 -4.38012177831477 -4.700177926839274" label_model=mpa-0 structure_key=4f6fd09e0515254ae5799e8333224e74a3b42a85313ad936d92adb12366c08c8 pbc="T T T"
Si      -0.00278990       0.02128071       0.01839229       0.90119782      -0.46060459      -0.13097748
Si       1.47963914       1.34726929       1.48876819      -1.54199956       1.66897651      -1.87063280
Si      -0.01849799       2.89074787       2.66704319       1.67239037      -1.53019508       1.81557003
Si       1.46995284       4.24815787       4.11321538      -0.92546117      -0.64853759       1.10622669
Si       2.68995216       0.04346257       2.76138323       2.85878127      -1.05060307       0.88184752
Si       4.33676877       1.36640418       4.14397878      -1.28944338       0.69634255      -0.02958361
Si       2.85748928       2.81077363       0.05088405      -0.00336133      -0.64239682      -0.97615256
Si       4.28134921       4.12084010       1.39192940      -1.67210402       1.96701808      -0.79629779
8
Lattice="5.6472 0.0 0.0 0.0 5.6472 0.0 0.0 0.0 5.6472" Properties=species:S:1:pos:R:3:forces:R:3 config_type=bulk energy=-42.12796030757457 virial="-8.228706303825474 2.547517689184107 1.1002288318763849 2.547517689184107 -6.327137353802834 3.7949306666477622 1.1002288318763849 3.7949306666477622 -7.658244556294609" label_model=mpa-0 structure_key=5b82e40a22905fe422feb17f50128c26efd9edb18d4b086add6faa8443ad7da8 pbc="T T T"
Si       0.02515829      -0.02680174       0.04825569      -0.28601530      -0.03532792      -1.55375264
Si       1.41112525       1.31724394       1.46138070       1.22511920      -0.33427856      -0.27710039
Si       0.07990358       2.74116673       2.71256088      -1.30636299       0.11434719       0.48365283
Si       1.40800967       4.09481485       4.17191953       0.42417082       0.88527717       0.63780558
Si       3.01781760      -0.10375118       2.87193216      -2.45456939      -1.57654839      -1.69696454
Si       4.07827245       1.34428838       4.08895022       2.65255003       1.59054789       2.09986093
Si       2.84715175       2.78070267       0.02230136      -0.82587559      -0.68705460      -0.69027292
Si       4.26430700       4.16949742       1.27622113       0.57098322       0.04303722       0.99677115
8
Lattice="5.1042 0.0 0.0 0.0 5.1042 0.0 0.0 0.0 5.1042" Properties=species:S:1:pos:R:3:forces:R:3 config_type=bulk energy=-41.05796123906677 virial="24.08181285273492 -1.9667609441353305e-14 -1.793238192213642e-14 -1.9667609441353305e-14 24.081812852734956 -3.9750398318472796e-14 -1.793238192213642e-14 -3.9750398318472796e-14 24.081812852734956" label_model=mpa-0 structure_key=443a030388079953a91ef772b0a8ee2387487e4278b894c658467c574fe4dcea pbc="T T T"
Si       0.00000000       0.00000000       0.00000000      -0.00000000       0.00000000      -0.00000000
Si       1.27605000       1.27605000       1.27605000       0.00000000       0.00000000       0.00000000
Si       0.00000000       2.55210000       2.55210000      -0.00000000       0.00000000       0.00000000
Si       1.27605000       3.82815000       3.82815000       0.00000000      -0.00000000      -0.00000000
Si       2.55210000       0.00000000       2.55210000       0.00000000       0.00000000       0.00000000
Si       3.82815000       1.27605000       3.82815000      -0.00000000       0.00000000      -0.00000000
Si       2.55210000       2.55210000       0.00000000       0.00000000       0.00000000      -0.00000000
Si       3.82815000       3.82815000       1.27605000      -0.00000000      -0.00000000      -0.00000000
8
Lattice="5.1766 0.0 0.0 0.0 5.1766 0.0 0.0 0.0 5.1766" Properties=species:S:1:pos:R:3:forces:R:3 config_type=bulk energy=-41.95041223451361 virial="18.169268158361252 1.7235944410486524e-15 -2.712694994089118e-15 1.7235944410486524e-15 18.169268158361234 -1.1244469569919747e-15 -2.712694994089118e-15 -1.1244469569919747e-15 18.16926815836125" label_model=mpa-0 structure_key=143437a27a5d9214b1dac9306d9996d1f9b75068abb1cf5b75dc8ddca2e23d2c pbc="T T T"
Si       0.00000000       0.00000000       0.00000000       0.00000000       0.00000000       0.00000000
Si       1.29415000       1.29415000       1.29415000      -0.00000000      -0.00000000      -0.00000000
Si       0.00000000       2.58830000       2.58830000      -0.00000000       0.00000000      -0.00000000
Si       1.29415000       3.88245000       3.88245000      -0.00000000       0.00000000       0.00000000
Si       2.58830000       0.00000000       2.58830000       0.00000000      -0.00000000      -0.00000000
Si       3.88245000       1.29415000       3.88245000      -0.00000000      -0.00000000       0.00000000
Si       2.58830000       2.58830000       0.00000000       0.00000000       0.00000000       0.00000000
Si       3.88245000       3.88245000       1.29415000      -0.00000000      -0.00000000      -0.00000000
8
Lattice="5.249 0.0 0.0 0.0 5.249 0.0 0.0 0.0 5.249" Properties=species:S:1:pos:R:3:forces:R:3 config_type=bulk energy=-42.590476656272266 virial="12.647653631428698 -9.12044573118153e-16 -1.0447145918033176e-14 -9.12044573118153e-16 12.647653631428714 -1.4895332909127568e-15 -1.0447145918033176e-14 -1.4895332909127568e-15 12.647653631428708" label_model=mpa-0 structure_key=2272ae09195bc175c774b2b16e38bfd73ef4b0b4cb7de359f574c695bdf4f68f pbc="T T T"
Si       0.00000000       0.00000000       0.00000000       0.00000000       0.00000000      -0.00000000
Si       1.31225000       1.31225000       1.31225000       0.00000000      -0.00000000       0.00000000
Si       0.00000000       2.62450000       2.62450000       0.00000000       0.00000000       0.00000000
Si       1.31225000       3.93675000       3.93675000      -0.00000000      -0.00000000      -0.00000000
Si       2.62450000       0.00000000       2.62450000      -0.00000000       0.00000000       0.00000000
Si       3.93675000       1.31225000       3.93675000       0.00000000      -0.00000000      -0.00000000
Si       2.62450000       2.62450000       0.00000000       0.00000000       0.00000000       0.00000000
Si       3.93675000       3.93675000       1.31225000      -0.00000000      -0.00000000      -0.00000000
8
Lattice="5.3214 0.0 0.0 0.0 5.3214 0.0 0.0 0.0 5.3214" Properties=species:S:1:pos:R:3:forces:R:3 config_type=bulk energy=-43.009605555339135 virial="7.865201275088132 4.469501430951935e-14 4.086512703235959e-14 4.469501430951935e-14 7.865201275088128 4.2659445995453836e-14 4.086512703235959e-14 4.2659445995453836e-14 7.865201275088156" label_model=mpa-0 structure_key=f4d153eaff63f97152c038d7bc1a1dfab323b846ed9f3a8fbc89e9ef1fd8577f pbc="T T T"
Si       0.00000000       0.00000000       0.00000000      -0.00000000      -0.00000000       0.00000000
Si       1.33035000       1.33035000       1.33035000      -0.00000000      -0.00000000      -0.00000000
Si       0.00000000       2.66070000       2.66070000      -0.00000000      -0.00000000      -0.00000000
Si       1.33035000       3.99105000       3.99105000       0.00000000       0.00000000       0.00000000
Si       2.66070000       0.00000000       2.66070000      -0.00000000      -0.00000000      -0.00000000
Si       3.99105000       1.33035000       3.99105000       0.00000000       0.00000000       0.00000000
Si       2.66070000       2.66070000       0.00000000      -0.00000000      -0.00000000      -0.00000000
Si       3.99105000       3.99105000       1.33035000       0.00000000       0.00000000       0.00000000
8
Lattice="5.3938 0.0 0.0 0.0 5.3938 0.0 0.0 0.0 5.3938" Properties=species:S:1:pos:R:3:forces:R:3 config_type=bulk energy=-43.24314398712988 virial="3.7365923430116923 2.090770004803359e-14 1.0257524507753442e-14 2.090770004803359e-14 3.73659234301169 1.0829539215470133e-14 1.0257524507753442e-14 1.0829539215470133e-14 3.7365923430116874" label_model=mpa-0 structure_key=ca4c55ad10e0ee9020ccf7dcba62634c7fd38c6cdeb62179ca8ad86d8229fe65 pbc="T T T"
Si       0.00000000       0.00000000       0.00000000       0.00000000       0.00000000       0.00000000
Si       1.34845000       1.34845000       1.34845000       0.00000000      -0.00000000      -0.00000000
Si       0.00000000       2.69690000       2.69690000       0.00000000       0.00000000       0.00000000
Si       1.34845000       4.04535000       4.04535000       0.00000000      -0.00000000      -0.00000000
Si       2.69690000       0.00000000       2.69690000       0.00000000       0.00000000       0.00000000
Si       4.04535000       1.34845000       4.04535000      -0.00000000       0.00000000      -0.00000000
Si       2.69690000       2.69690000       0.00000000       0.00000000       0.00000000       0.00000000
Si       4.04535000       4.04535000       1.34845000      -0.00000000      -0.00000000       0.00000000
8
Lattice="5.4662 0.0 0.0 0.0 5.4662 0.0 0.0 0.0 5.4662" Properties=species:S:1:pos:R:3:forces:R:3 config_type=bulk energy=-43.31797722528195 virial="0.059526362308806785 6.531875680541981e-15 -9.642100576707314e-15 6.531875680541981e-15 0.05952636230881564 -1.538034798244442e-16 -9.642100576707314e-15 -1.538034798244442e-16 0.05952636230881121" label_model=mpa-0 structure_key=9d98f3daec99f7a06a3fe61ba6f2fb1be21a18200eacb9b569d747bde5f6df4b pbc="T T T"
Si       0.00000000       0.00000000       0.00000000      -0.00000000      -0.00000000      -0.00000000
Si       1.36655000       1.36655000       1.36655000      -0.00000000      -0.00000000       0.00000000
Si       0.00000000       2.73310000       2.73310000      -0.00000000       0.00000000       0.00000000
Si       1.36655000       4.09965000       4.09965000      -0.00000000       0.00000000       0.00000000
Si       2.73310000       0.00000000       2.73310000       0.00000000      -0.00000000       0.00000000
Si       4.09965000       1.36655000       4.09965000       0.00000000      -0.00000000       0.00000000
Si       2.73310000       2.73310000       0.00000000      -0.00000000       0.00000000      -0.00000000
Si       4.09965000       4.09965000       1.36655000       0.00000000       0.00000000      -0.00000000
8
Lattice="5.5386 0.0 0.0 0.0 5.5386 0.0 0.0 0.0 5.5386" Properties=species:S:1:pos:R:3:forces:R:3 config_type=bulk energy=-43.25331990924552 virial="-3.2959791982655844 2.8927009715749352e-18 4.317038424100416e-16 2.8927009715749352e-18 -3.295979198265582 7.188268346159031e-16 4.317038424100416e-16 7.188268346159031e-16 -3.2959791982655844" label_model=mpa-0 structure_key=8cd4e235ec04542a34e6c55124a0f708632c5ebdbf608a392426fecec073fe7a pbc="T T T"
Si       0.00000000       0.00000000       0.00000000       0.00000000       0.00000000       0.00000000
Si       1.38465000       1.38465000       1.38465000       0.00000000       0.00000000       0.00000000
Si       0.00000000       2.76930000       2.76930000       0.00000000       0.00000000       0.00000000
Si       1.38465000       4.15395000       4.15395000       0.00000000      -0.00000000      -0.00000000
Si       2.76930000       0.00000000       2.76930000       0.00000000       0.00000000       0.00000000
Si       4.15395000       1.38465000       4.15395000      -0.00000000       0.00000000      -0.00000000
Si       2.76930000       2.76930000       0.00000000      -0.00000000       0.00000000       0.00000000
Si       4.15395000       4.15395000       1.38465000      -0.00000000      -0.00000000       0.00000000
8
Lattice="5.611000000000001 0.0 0.0 0.0 5.611000000000001 0.0 0.0 0.0 5.611000000000001" Properties=species:S:1:pos:R:3:forces:R:3 config_type=bulk energy=-43.06338049338934 virial="-6.440454293858875 -1.6491924971096522e-16 6.383777661128175e-16 -1.6491924971096522e-16 -6.44045429385887 -5.321206824246254e-16 6.383777661128175e-16 -5.321206824246254e-16 -6.440454293858871" label_model=mpa-0 structure_key=a3f0a38de258fa1eb3088f7b33778cfb9c46d47f9c1e708e65ccd9e91bdbe747 pbc="T T T"
Si       0.00000000       0.00000000       0.00000000       0.00000000      -0.00000000       0.00000000
Si       1.40275000       1.40275000       1.40275000      -0.00000000      -0.00000000       0.00000000
Si       0.00000000       2.80550000       2.80550000       0.00000000       0.00000000       0.00000000
Si       1.40275000       4.20825000       4.20825000       0.00000000      -0.00000000      -0.00000000
Si       2.80550000       0.00000000       2.80550000      -0.00000000      -0.00000000      -0.00000000
Si       4.20825000       1.40275000       4.20825000      -0.00000000      -0.00000000      -0.00000000
Si       2.80550000       2.80550000       0.00000000      -0.00000000       0.00000000       0.00000000
Si       4.20825000       4.20825000       1.40275000      -0.00000000      -0.00000000       0.00000000
8
Lattice="5.6834 0.0 0.0 0.0 5.6834 0.0 0.0 0.0 5.6834" Properties=species:S:1:pos:R:3:forces:R:3 config_type=bulk energy=-42.75694937908837 virial="-9.478425601051352 9.173060038550673e-17 -2.1081057095163003e-15 9.173060038550673e-17 -9.478425601051356 -6.390931616927483e-15 -2.1081057095163003e-15 -6.390931616927483e-15 -9.478425601051352" label_model=mpa-0 structure_key=bd191485be6d44aa450d293ad69c9dea2a725255e39f4fca4e290981d26026c4 pbc="T T T"
Si       0.00000000       0.00000000       0.00000000       0.00000000       0.00000000      -0.00000000
Si       1.42085000       1.42085000       1.42085000      -0.00000000       0.00000000       0.00000000
Si       0.00000000       2.84170000       2.84170000       0.00000000       0.00000000       0.00000000
Si       1.42085000       4.26255000       4.26255000       0.00000000      -0.00000000      -0.00000000
Si       2.84170000       0.00000000       2.84170000       0.00000000       0.00000000       0.00000000
Si       4.26255000       1.42085000       4.26255000      -0.00000000      -0.00000000      -0.00000000
Si       2.84170000       2.84170000       0.00000000       0.00000000       0.00000000       0.00000000
Si       4.26255000       4.26255000       1.42085000      -0.00000000      -0.00000000       0.00000000
8
Lattice="5.7558 0.0 0.0 0.0 5.7558 0.0 0.0 0.0 5.7558" Properties=species:S:1:pos:R:3:forces:R:3 config_type=bulk energy=-42.34275863001235 virial="-12.285097437408032 1.2234895231862567e-15 1.3813155981264989e-15 1.2234895231862567e-15 -12.285097437408036 2.490013463850282e-15 1.3813155981264989e-15 2.490013463850282e-15 -12.285097437408057" label_model=mpa-0 structure_key=501a03178346181044a440e005f364dc6db1088a592db860e8f6b022ccd8dab6 pbc="T T T"
Si       0.00000000       0.00000000       0.00000000      -0.00000000      -0.00000000      -0.00000000
Si       1.43895000       1.43895000       1.43895000      -0.00000000      -0.00000000      -0.00000000
Si       0.00000000       2.87790000       2.87790000      -0.00000000      -0.00000000      -0.00000000
Si       1.43895000       4.31685000       4.31685000      -0.00000000       0.00000000       0.00000000
Si       2.87790000       0.00000000       2.87790000      -0.00000000      -0.00000000      -0.00000000
Si       4.31685000       1.43895000       4.31685000       0.00000000      -0.00000000       0.00000000
Si       2.87790000       2.87790000       0.00000000      -0.00000000      -0.00000000      -0.00000000
Si       4.31685000       4.31685000       1.43895000       0.00000000       0.00000000      -0.00000000
8
Lattice="5.1042 0.0 0.0 0.0 5.1042 0.0 0.0 0.0 5.1042" Properties=species:S:1:pos:R:3:forces:R:3 config_type=bulk energy=-40.95090448425405 virial="24.184741581100532 0.6727804065844425 -0.7374900694357182 0.6727804065844425 24.100164227574457 -0.8662017341891336 -0.7374900694357182 -0.8662017341891336 24.291407924508448" label_model=mpa-0 structure_key=f2d8a07f8d02e3414294d4e7c398ec81210a52a3f040cb8d9ee1a14d2610fd21 pbc="T T T"
Si      -0.00863437      -0.02785748       0.00623141      -0.11928655       0.38092558       0.18721167
Si       1.27578530       1.30504415       1.28201305      -0.16810763      -0.34642546      -0.64015404
Si      -0.01659792       2.52017683       2.56436876       0.79725229       0.38226030       0.10492067
Si       1.26969806       3.82667007       3.81597738       0.09980982      -0.47542979       0.39327432
Si       2.51210254       0.01816481       2.56175960       0.66843226      -0.35370755      -0.42127896
Si       3.83258757       1.28933058       3.80323386      -0.21850112      -0.95226263       0.66984521
Si       2.59147758       2.54572702       0.00719536      -0.60760274       0.18113564      -0.38349089
Si       3.84307342       3.77365282       1.30955758      -0.45199631       1.18350390       0.08967203
8
Lattice="5.1766 0.0 0.0 0.0 5.1766 0.0 0.0 0.0 5.1766" Properties=species:S:1:pos:R:3:forces:R:3 config_type=bulk energy=-41.878095951835455 virial="18.262664068422342 0.6800613553149709 0.15981367924125947 0.6800613553149709 18.363016744294182 1.5338586823515172 0.15981367924125947 1.5338586823515172 18.281991183581823" label_model=mpa-0 structure_key=bee7fb4cf592789d2761dee27fbb093ce00cef20e3a652e9dafc05314d687daf pbc="T T T"
Si       0.00818480       0.00612626      -0.01970961      -0.42735763       0.29813398       0.70241149
Si       1.29586004       1.28490335       1.30591409      -0.02332197       0.28167082      -0.18959060
Si       0.01673065       2.58281466       2.62699492      -0.47886893       0.06455671      -0.83957147
Si       1.24527185       3.91113814       3.88194109       1.01938124      -0.32583154       0.00415556
Si       2.58681907       0.00660115       2.59727364      -0.02707936      -0.35182834      -0.10371543
Si       3.88263366       1.28374264       3.87427663      -0.20510955       0.28530202       0.28451364
Si       2.58607678       2.60346808      -0.00128277      -0.34937346      -0.18409832      -0.31622457
Si       3.86983853       3.88732190       1.27714577       0.49172965      -0.06790534       0.45802138
8
Lattice="5.249 0.0 0.0 0.0 5.249 0.0 0.0 0.0 5.249" Properties=species:S:1:pos:R:3:forces:R:3 config_type=bulk energy=-42.37856613705888 virial="13.309110943840178 1.1008814609254327 1.149790973165461 1.1008814609254327 13.244388248089443 -2.223490470367916 1.149790973165461 -2.223490470367916 13.151415610114636" label_model=mpa-0 structure_key=57d3c4a052c28d5583205433357a412d1ab458ff949ca8f2561337084a42a239 pbc="T T T"
Si      -0.02279584       0.01745016      -0.03373523       1.27046781      -0.64708750       0.77444101
Si       1.33211947       1.35677185       1.29084026      -0.56188473      -1.04406637       0.64853064
Si       0.00061911       2.65005470       2.61287070      -0.57291249      -0.80324906      -0.05842571
Si       1.30143352       3.91457721       3.89054305      -0.17303712       0.31154388       0.78227127
Si       2.60675463      -0.01390002       2.66506440       0.53135372       0.36856441      -0.87999999
Si       3.95820750       1.27451391       3.98476245      -0.90187039       1.28190559      -0.93048897
Si       2.57868158       2.64034400       0.01664700       0.81814344       0.10714451      -0.80170160
Si       3.95005557       3.92797687       1.27204613      -0.41026024       0.42524453       0.46537337
8
Lattice="5.3214 0.0 0.0 0.0 5.3214 0.0 0.0 0.0 5.3214" Properties=species:S:1:pos:R:3:forces:R:3 config_type=bulk energy=-42.936682377356306 virial="8.070920742864127 0.13928268782052042 0.1060390041229948 0.13928268782052042 8.08612366336873 -0.4693597777944835 0.1060390041229948 -0.4693597777944835 8.05611926896148" label_model=mpa-0 structure_key=597926ac2e201e3919f768d06d79be014b351baf10ea8d0e3d4883230b2212e1 pbc="T T T"
Si      -0.00832629      -0.01278042       0.00561206      -0.18340497       0.31619555       0.05375646
Si       1.34786008       1.37045379       1.29171061      -0.51685465      -0.59573724       0.55479798
Si      -0.00325717       2.68377565       2.64175890       0.14608323      -0.12931181       0.29740584
Si       1.34521089       4.00029066       4.02935258      -0.40455669       0.19401390      -0.71962158
Si       2.65804880       0.01366197       2.65997220      -0.22801018      -0.10855822      -0.21255783
Si       3.96866286       1.33285660       3.97567911       0.34842352       0.17040051       0.19183952
Si       2.62339148       2.67462940      -0.00380540       0.70445252      -0.18932682      -0.29870867
Si       3.95914685       3.96855805       1.31829500       0.13386721       0.34232413       0.13308828
8
Lattice="5.3938 0.0 0.0 0.0 5.3938 0.0 0.0 0.0 5.3938" Properties=species:S:1:pos:R:3:forces:R:3 config_type=bulk energy=-43.19285062851042 virial="3.874808510909908 0.012658071571258544 0.2643266487397313 0.012658071571258544 3.8957108527922957 0.09987473607276012 0.2643266487397313 0.09987473607276012 3.898985753824779" label_model=mpa-0 structure_key=e7c3b040fc0577a2b82506ae6243c3e10fbfb011f39af1104e0e7684277198c9 pbc="T T T"
Si       0.02807120      -0.02246944       0.00362407      -0.20235690       0.23765198      -0.03022841
Si       1.35588370       1.35507906       1.36078046      -0.07840791      -0.08324540      -0.07872850
Si      -0.01439084       2.70475947       2.66744825       0.10998077      -0.17295756       0.58499428
Si       1.38107446       4.05935434       4.04113598      -0.35225262      -0.32643922      -0.10084240
Si       2.70334470       0.01716521       2.72109243      -0.01600434      -0.24776834      -0.48697223
Si       4.00907738       1.32538606       4.05394318       0.66756424       0.35295396       0.17357365
Si       2.69479813       2.70352487       0.01061098      -0.00335744      -0.09579741      -0.06923914
Si       4.04994809       4.03376614       1.34512423      -0.12516581       0.33560200       0.00744276
8
Lattice="5.4662 0.0 0.0 0.0 5.4662 0.0 0.0 0.0 5.4662" Properties=species:S:1:pos:R:3:forces:R:3 config_type=bulk energy=-43.29389175775433 virial="0.06278433341163832 -0.1589833546283178 -0.17255578541697308 -0.1589833546283178 0.08496378315837141 -0.06943945567541601 -0.17255578541697308 -0.06943945567541601 0.09912545261109589" label_model=mpa-0 structure_key=fd1c03054fdd7b1064792d10d5072be503fe84a69dbbc90bbe65bda5a3f75398 pbc="T T T"
Si       0.03035422      -0.02059767       0.00804995      -0.26740014      -0.00086542       0.00341087
Si       1.33978903       1.35164408       1.38081191       0.12528578       0.18210804       0.06790924
Si      -0.03583756       2.72554337       2.75504025       0.29928929       0.21924460      -0.16291975
Si       1.38216269       4.08808484       4.11292339      -0.04988435      -0.00118256      -0.23356063
Si       2.74066939       0.02710098       2.74673286      -0.05606187      -0.14430163       0.05315074
Si       4.12005381       1.37572817       4.12143381      -0.11658016      -0.25846546       0.09136807
Si       2.71862027       2.70676434      -0.00449869       0.09808642       0.13796451       0.29548689
Si       4.08624464       4.11192822       1.37929727      -0.03273498      -0.13450207      -0.11484543
8
Lattice="5.5386 0.0 0.0 0.0 5.5386 0.0 0.0 0.0 5.5386" Properties=species:S:1:pos:R:3:forces:R:3 config_type=bulk energy=-43.22477318416458 virial="-3.249740276331059 0.10432726657962234 -0.31110061258014926 0.10432726657962234 -3.274840727531411 0.11985507928580412 -0.31110061258014926 0.11985507928580412 -3.2644104875903075" label_model=mpa-0 structure_key=71d1cd61d0d3773a732f217d38890307ea92b8b2c904b6db62b6cc4f6e0e9efc pbc="T T T"
Si       0.01921965      -0.01854170      -0.02751153      -0.07128626       0.14381078       0.24960746
Si       1.39423372       1.40747451       1.37732847      -0.08627079      -0.27230844       0.03301684
Si      -0.00358072       2.75422816       2.78589268      -0.06037446       0.06939215      -0.18901207
Si       1.39379565       4.13397537       4.14115726      -0.02590233      -0.05260395       0.12500730
Si       2.75462000      -0.03550677       2.76401221       0.04774406       0.43086851       0.03869485
Si       4.15759607       1.37490221       4.16006352      -0.11685837      -0.08698023      -0.01657405
Si       2.79055892       2.78865274       0.02368486      -0.08889136      -0.18261128      -0.23673344
Si       4.13577893       4.16402182       1.39143344       0.40183951      -0.04956754      -0.00400689
8
Lattice="5.611000000000001 0.0 0.0 0.0 5.611000000000001 0.0 0.0 0.0 5.611000000000001" Properties=species:S:1:pos:R:3:forces:R:3 config_type=bulk energy=-43.020347227374344 virial="-6.402270564280793 -0.24196831765960855 -0.22961151282604847 -0.24196831765960855 -6.421396368671197 -0.11204092178765179 -0.22961151282604847 -0.11204092178765179 -6.4072311520456795" label_model=mpa-0 structure_key=451e34a1d0640d5aec2f5ebd948c98d30ea4f790fef3f8fbaae15a946100bc18 pbc="T T T"
Si       0.00735418      -0.00184435      -0.00890291      -0.07096992       0.05260417      -0.00243468
Si       1.43251787       1.40557669       1.36645761      -0.25905356      -0.14239262       0.25970533
Si      -0.03236493       2.80416387       2.76449939       0.38265023      -0.04606855       0.23704834
Si       1.40003850       4.20335916       4.21468416      -0.07076270      -0.04254243      -0.28762466
Si       2.81089229      -0.00905742       2.79522231       0.01824717       0.04964850       0.06187598
Si       4.19456984       1.44093101       4.22250741       0.20733070      -0.47376012      -0.35339344
Si       2.81370499       2.78224592      -0.02143781      -0.15161058       0.30405901       0.07934621
Si       4.20701717       4.17751148       1.37829872      -0.05583134       0.29845204       0.00547692
8
Lattice="5.6834 0.0 0.0 0.0 5.6834 0.0 0.0 0.0 5.6834" Properties=species:S:1:pos:R:3:forces:R:3 config_type=bulk energy=-42.716693046973504 virial="-9.507888107437493 -0.06235213793093572 0.34761077982194305 -0.06235213793093572 -9.47691368045316 -0.5335884889963823 0.34761077982194305 -0.5335884889963823 -9.481592449305126" label_model=mpa-0 structure_key=7fd3bfef34a7f23a0b5eb0974e81762dacfb117782de3b96df8c5d37e0e046fa pbc="T T T"
Si      -0.00069747       0.00532018       0.00459807       0.19765545      -0.10068793      -0.06007103
Si       1.44082645       1.40773399       1.44310871      -0.22220093       0.23381112      -0.29149607
Si      -0.00462450       2.86452030       2.80859413       0.24821751      -0.23187231       0.28814731
Si       1.43840488       4.27478947       4.24105384      -0.17584597      -0.08435076       0.20795976
Si       2.81432137       0.01086564       2.83217914       0.49008986      -0.15711009       0.09759132
Si       4.29694219       1.41251771       4.24874469      -0.29110850       0.15600686       0.03754613
Si       2.85620565       2.84452674       0.01272101       0.03457941      -0.13283503      -0.20845420
Si       4.28308730       4.24296002       1.41889902      -0.28138684       0.31703813      -0.07122321
8
Lattice="5.7558 0.0 0.0 0.0 5.7558 0.0 0.0 0.0 5.7558" Properties=species:S:1:pos:R:3:forces:R:3 config_type=bulk energy=-42.300644908697834 virial="-12.342220993967286 0.33970659615749904 0.11844142884137461 0.33970659615749904 -12.26786115929535 0.5044913394939569 0.11844142884137461 0.5044913394939569 -12.316217994869833" label_model=mpa-0 structure_key=dfd551b018fab35c66d595db96555f6a9a100b2a5ec3c432807171d8a9e24db5 pbc="T T T"
Si       0.00628957      -0.00670044       0.01206392      -0.09270638      -0.02059061      -0.34160040
Si       1.43878131       1.41531099       1.45134517       0.23943716      -0.03120364      -0.04205037
Si       0.01997589       2.85729168       2.85014022      -0.26215521      -0.00902282       0.08077612
Si       1.43800242       4.28170371       4.30097988       0.10377388       0.18062829       0.15436297
Si       2.92645440      -0.02593779       2.88998304      -0.46559135      -0.12083235      -0.24890068
Si       4.27756811       1.42207209       4.28023756       0.51475928       0.11805951       0.34825928
Si       2.88378794       2.86717567       0.00557534      -0.18536913      -0.12331118      -0.16420574
Si       4.32407675       4.30037436       1.40505528       0.14785175       0.00627281       0.21335882
8
Lattice="5.1042 0.0 0.0 0.0 5.1042 0.0 0.0 0.0 5.1042" Properties=species:S:1:pos:R:3:forces:R:3 config_type=bulk energy=-40.62696762597084 virial="24.509521531248414 1.2959717464423661 -1.506613705652616 1.2959717464423661 24.185556671645504 -1.874485948996942 -1.506613705652616 -1.874485948996942 24.903158843511406" label_model=mpa-0 structure_key=d796c5a9d40e2385e7b967b8cd61b0e8099b2bf9dce8c0f7c5fd0ab94f43bd76 pbc="T T T"
Si      -0.01726874      -0.05571496       0.01246283      -0.21973409       0.71857613       0.35262545
Si       1.27552060       1.33403831       1.28797611      -0.28220737      -0.64220910      -1.25184482
Si      -0.03319584       2.48825366       2.57663751       1.79513866       0.79717188       0.16485773
Si       1.26334612       3.82519013       3.80380476       0.15559414      -0.92143922       0.74199536
Si       2.47210508       0.03632963       2.57141920       1.27200708      -0.62734961      -0.71337419
Si       3.83702514       1.30261117       3.77831773      -0.62808283      -2.00088075       1.42430421
Si       2.63085516       2.53935404       0.01439072      -1.19277203       0.30107188      -0.74008561
Si       3.85799684       3.71915564       1.34306515      -0.89994356       2.37505879       0.02152188
8
Lattice="5.1766 0.0 0.0 0.0 5.1766 0.0 0.0 0.0 5.1766" Properties=species:S:1:pos:R:3:forces:R:3 config_type=bulk energy=-41.659896388228645 virial="18.49473723728115 1.2171050264614487 0.3123983020603172 1.2171050264614487 18.91205325812598 3.157779145025049 0.3123983020603172 3.157779145025049 18.58895920961332" label_model=mpa-0 structure_key=2fb59712c3784f9a81afefd6d1136272a3d166b42ea87eae8550b89d36afe730 pbc="T T T"
Si       0.01636961       0.01225252      -0.03941922      -0.92313819       0.71035040       1.52417951
Si       1.29757008       1.27565670       1.31767817      -0.06598120       0.56417640      -0.37998227
Si       0.03346130       2.57732931       2.66568984      -0.89094735       0.00261463      -1.63594008
Si       1.19639370       3.93982629       3.88143217       2.11172294      -0.68045988      -0.13107141
Si       2.58533814       0.01320230       2.60624727      -0.06817378      -0.72508963      -0.20489284
Si       3.88281732       1.27333529       3.86610327      -0.40191028       0.57521521       0.56243699
Si       2.58385355       2.61863616      -0.00256553      -0.69783546      -0.39430127      -0.61947321
Si       3.85722706       3.89219380       1.26014153       0.93626332      -0.05250585       0.88474330
8
Lattice="5.249 0.0 0.0 0.0 5.249 0.0 0.0 0.0 5.249" Properties=species:S:1:pos:R:3:forces:R:3 config_type=bulk energy=-41.67914301808724 virial="14.918467912227412 2.15285094254416 2.4669054574536826 2.15285094254416 14.68463903010832 -4.894115491124739 2.4669054574536826 -4.894115491124739 14.226592229712097" label_model=mpa-0 structure_key=96846f64290ff15dce1cdfc62628f3c0a33b2dc10cf80f10eeeca81191d8c7ec pbc="T T T"
Si      -0.04559168       0.03490032      -0.06747047       2.92499457      -1.72146962       1.88445750
Si       1.35198894       1.40129370       1.26943052      -1.32376667      -2.28003058       1.53865692
Si       0.00123822       2.67560940       2.60124139      -1.20019010      -1.65640883      -0.24187356
Si       1.29061704       3.89240441       3.84433609      -0.24847068       0.58741470       1.69483464
Si       2.58900927      -0.02780004       2.70562880       1.14061839       0.87587823      -1.73813590
Si       3.97966500       1.23677783       4.03277490      -2.29877769       2.92439746      -2.23697383
Si       2.53286316       2.65618800       0.03329400       1.76831691       0.51353576      -1.76862908
Si       3.96336114       3.91920374       1.23184225      -0.76272474       0.75668289       0.86766330
8
Lattice="5.3214 0.0 0.0 0.0 5.3214 0.0 0.0 0.0 5.3214" Properties=species:S:1:pos:R:3:forces:R:3 config_type=bulk energy=-42.69988113898914 virial="8.635244843351673 0.33074194138344865 0.20267312904042334 0.33074194138344865 8.733548924781504 -1.201619392525258 0.20267312904042334 -1.201619392525258 8.590902227235896" label_model=mpa-0 structure_key=64a8c2abc91d0793ee53e36d729433d744188093093c02ae4fea71ac35d0d164 pbc="T T T"
Si      -0.01665257      -0.02556085       0.01122412      -0.36830422       0.64438583       0.11782061
Si       1.36537015       1.41055759       1.25307123      -1.19276950      -1.36879092       1.27386366
Si      -0.00651433       2.70685130       2.62281780       0.29981272      -0.26771788       0.58764093
Si       1.36007178       4.00953133       4.06765516      -0.87201179       0.51952840      -1.54762113
Si       2.65539759       0.02732393       2.65924441      -0.47200883      -0.25621565      -0.45781610
Si       3.94627573       1.33536320       3.96030822       0.70670327       0.37977009       0.41835697
Si       2.58608296       2.68855880      -0.00761080       1.62153692      -0.34889003      -0.67471320
Si       3.92724370       3.94606610       1.30624000       0.27704143       0.69793016       0.28246827
8
Lattice="5.3938 0.0 0.0 0.0 5.3938 0.0 0.0 0.0 5.3938" Properties=species:S:1:pos:R:3:forces:R:3 config_type=bulk energy=-43.034419448836225 virial="4.272107674403175 0.12869025958315214 0.6784535671855954 0.12869025958315214 4.355580548555252 0.2512951489737753 0.6784535671855954 0.2512951489737753 4.3769680385242395" label_model=mpa-0 structure_key=f2e52b136ba27512770cedefcc4a3bd4fcb19d5453ef5e8ddfb15547f1796d3e pbc="T T T"
Si       0.05614241      -0.04493888       0.00724814      -0.42181820       0.47881595      -0.04186740
Si       1.36331740       1.36170812       1.37311092      -0.15273442      -0.17927215      -0.15943820
Si      -0.02878168       2.71261894       2.63799650       0.27142693      -0.39500752       1.20447158
Si       1.41369893       4.07335868       4.03692196      -0.71973123      -0.67897371      -0.18179095
Si       2.70978941       0.03433042       2.74528486      -0.11035774      -0.56362046      -1.11974289
Si       3.97280475       1.30232211       4.06253637       1.43052054       0.80417912       0.47227616
Si       2.69269625       2.71014974       0.02122197      -0.01175615      -0.19931279      -0.14717729
Si       4.05454619       4.02218229       1.34179846      -0.28554973       0.73319155      -0.02673100
8
Lattice="5.4662 0.0 0.0 0.0 5.4662 0.0 0.0 0.0 5.4662" Properties=species:S:1:pos:R:3:forces:R:3 config_type=bulk energy=-43.22028498498106 virial="0.06970669855775904 -0.3054029551252756 -0.38259344306884635 -0.3054029551252756 0.172387391655577 -0.1731203674582001 -0.38259344306884635 -0.1731203674582001 0.22740003816390061" label_model=mpa-0 structure_key=a6e6ba826921d8a33eb3780989c532dc8b29e0cd95b50f84c49fe705444cc8d3 pbc="T T T"
Si       0.06070845      -0.04119534       0.01609991      -0.55241502      -0.00881924       0.00490512
Si       1.31302807       1.33673816       1.39507381       0.25746093       0.37379988       0.15205886
Si      -0.07167512       2.71798673       2.77698051       0.62767180       0.48026092      -0.37141500
Si       1.39777538       4.07651968       4.12619679      -0.10260875       0.00184437      -0.48259877
Si       2.74823878       0.05420196       2.76036572      -0.11106822      -0.28328621       0.10418978
Si       4.14045761       1.38490635       4.14321762      -0.25433064      -0.56018194       0.22712974
Si       2.70414053       2.68042869      -0.00899738       0.18841048       0.26161172       0.59421599
Si       4.07283928       4.12420643       1.39204454      -0.05312057      -0.26522950      -0.22848572
8
Lattice="5.5386 0.0 0.0 0.0 5.5386 0.0 0.0 0.0 5.5386" Properties=species:S:1:pos:R:3:forces:R:3 config_type=bulk energy=-43.13604772145303 virial="-3.104849986572677 0.2568855863302428 -0.6614340112686191 0.2568855863302428 -3.2031718465383627 0.29058791171795245 -0.6614340112686191 0.29058791171795245 -3.164870256111216" label_model=mpa-0 structure_key=96280eef2a241dd82ad57e19868640497f1769f803bb5bd87cd7011ada66a1cf pbc="T T T"
Si       0.03843930      -0.03708340      -0.05502306      -0.15305872       0.29765594       0.51100065
Si       1.40381743       1.43029901       1.37000694      -0.17580290      -0.55836423       0.07311626
Si      -0.00716144       2.73915633       2.80248536      -0.12126334       0.14414460      -0.38906248
Si       1.40294129       4.11400073       4.12836452      -0.05337046      -0.13001909       0.26904572
Si       2.73994000      -0.07101354       2.75872441       0.07889936       0.91007661       0.08383788
Si       4.16124213       1.36515443       4.16617704      -0.24125787      -0.17800963      -0.02609719
Si       2.81181784       2.80800547       0.04736972      -0.20261444      -0.39232448      -0.51208954
Si       4.11760786       4.17409365       1.39821689       0.86846838      -0.09315972      -0.00975130
8
Lattice="5.611000000000001 0.0 0.0 0.0 5.611000000000001 0.0 0.0 0.0 5.611000000000001" Properties=species:S:1:pos:R:3:forces:R:3 config_type=bulk energy=-42.88173275771499 virial="-6.230084335858382 -0.633464789148141 -0.5856789613870999 -0.633464789148141 -6.3246601501227175 -0.20980729794704953 -0.5856789613870999 -0.20980729794704953 -6.250358917785199" label_model=mpa-0 structure_key=565161b591c7dbf2b574c997dc448d145fd3c6cfebed62dd8f9f851fbb3cbf11 pbc="T T T"
Si       0.01470837      -0.00368871      -0.01780582      -0.15878368       0.11735332      -0.00000169
Si       1.46228575       1.40840338       1.33016522      -0.54897342      -0.31168842       0.55524103
Si      -0.06472986       2.80282773       2.72349878       0.81056649      -0.13816978       0.52222847
Si       1.39732700       4.19846832       4.22111833      -0.13759000      -0.09502775      -0.58909031
Si       2.81628458      -0.01811484       2.78494462       0.04018694       0.10925384       0.12795275
Si       4.18088968       1.47911202       4.23676482       0.52794106      -1.04555781      -0.80972949
Si       2.82190998       2.75899185      -0.04287561      -0.38659280       0.71769290       0.21877896
Si       4.20578434       4.14677296       1.35384744      -0.14675458       0.64614372      -0.02537973
8
Lattice="5.6834 0.0 0.0 0.0 5.6834 0.0 0.0 0.0 5.6834" Properties=species:S:1:pos:R:3:forces:R:3 config_type=bulk energy=-42.589010942595536 virial="-9.542510683076632 -0.20876026582345433 0.8361922380879023 -0.20876026582345433 -9.415308662689887 -1.2538182239825477 0.8361922380879023 -1.2538182239825477 -9.43567289384185" label_model=mpa-0 structure_key=d5bd6d75d675b5a2cf7c6dd2ab08b40b5b99726a57a8c93087877c7c85f907af pbc="T T T"
Si      -0.00139495       0.01064035       0.00919614       0.40696046      -0.20773972      -0.11043381
Si       1.46080290       1.39461798       1.46536743      -0.50338590       0.53108113      -0.64106123
Si      -0.00924899       2.88734060       2.77548826       0.55570206      -0.51692748       0.63130781
Si       1.45595975       4.28702893       4.21955769      -0.37495378      -0.19033657       0.43503905
Si       2.78694275       0.02173128       2.82265828       1.05776120      -0.35121538       0.23961725
Si       4.33133439       1.40418542       4.23493939      -0.59656226       0.31882009       0.05709731
Si       2.87071131       2.84735348       0.02544203       0.06377663      -0.27631686      -0.42507239
Si       4.30362460       4.22337005       1.41694803      -0.60929841       0.69263478      -0.18649399
8
Lattice="5.7558 0.0 0.0 0.0 5.7558 0.0 0.0 0.0 5.7558" Properties=species:S:1:pos:R:3:forces:R:3 config_type=bulk energy=-42.17020701933173 virial="-12.4743189585986 0.7699069198081798 0.2741889894642863 0.7699069198081798 -12.154490339446697 1.1352433750541295 0.2741889894642863 1.1352433750541295 -12.365820926591796" label_model=mpa-0 structure_key=9ffd25d4ab9c7c292adbf41c39a35e69570f1aef46bc8feb513f214178c8d20d pbc="T T T"
Si       0.01257915      -0.01340087       0.02412785      -0.18413399      -0.04161981      -0.69475136
Si       1.43861262       1.39167197       1.46374035       0.49729921      -0.07650312      -0.08991627
Si       0.03995179       2.83668336       2.82238044      -0.54275572      -0.00872089       0.17087832
Si       1.43705484       4.24655743       4.28510977       0.21435893       0.37482043       0.31023973
Si       2.97500880      -0.05187559       2.90206608      -0.97916186      -0.32947209      -0.55362875
Si       4.23828622       1.40519419       4.24362511       1.07715723       0.32773753       0.75303755
Si       2.88967588       2.85645134       0.01115068      -0.37761086      -0.26399003      -0.33368489
Si       4.33130350       4.28389871       1.37116056       0.29484705       0.01774799       0.43782565
8
Lattice="5.1042 0.0 0.0 0.0 5.1042 0.0 0.0 0.0 5.1042" Properties=species:S:1:pos:R:3:forces:R:3 config_type=bulk energy=-40.079905699744835 virial="25.09935565549687 1.854221062340911 -2.3043138912231353 1.854221062340911 24.401319781978625 -3.0719300095835402 -2.3043138912231353 -3.0719300095835402 25.915626719598286" label_model=mpa-0 structure_key=79891d3d36a3571878263e47e21bc5e5157ddf090bd57b5dcf366d1e94982a05 pbc="T T T"
Si      -0.02590311      -0.08357244       0.01869424      -0.30182479       1.01507296       0.50157446
Si       1.27525591       1.36303246       1.29393916      -0.34390564      -0.88558258      -1.83674172
Si      -0.04979376       2.45633049       2.58890627       3.03188514       1.24532109       0.17031096
Si       1.25699417       3.82371020       3.79163215       0.17702075      -1.34337280       1.04763662
Si       2.43210762       0.05449444       2.58107880       1.81551737      -0.82704168      -0.89637079
Si       3.84146271       1.31589175       3.75340159      -1.25610092      -3.16132985       2.28681603
Si       2.67023274       2.53298106       0.02158607      -1.75406178       0.36957657      -1.07131374
Si       3.87292026       3.66465846       1.37657273      -1.36853013       3.58735629      -0.20191182
8
Lattice="5.1766 0.0 0.0 0.0 5.1766 0.0 0.0 0.0 5.1766" Properties=species:S:1:pos:R:3:forces:R:3 config_type=bulk energy=-41.29377880797409 virial="18.786275351764495 1.6075099164251492 0.44317996151546507 1.6075099164251492 19.76301873391929 4.874218883107871 0.44317996151546507 4.874218883107871 19.03459322962511" label_model=mpa-0 structure_key=651f11182256e95c9e80f7dd93581f2ff46d967ad4e81480acccc05cd318c57c pbc="T T T"
Si       0.02455441       0.01837879      -0.05912884      -1.48419124       1.24774176       2.47618319
Si       1.29928011       1.26641005       1.32944226      -0.13125162       0.84873518      -0.57122303
Si       0.05019195       2.57184397       2.70438476      -1.23378944      -0.16936687      -2.37970040
Si       1.14751555       3.96851443       3.88092326       3.25605246      -1.08448641      -0.42806533
Si       2.58385721       0.01980344       2.61522091      -0.11916882      -1.11780518      -0.30342027
Si       3.88300098       1.26292793       3.85792990      -0.58871146       0.87294056       0.83019100
Si       2.58163033       2.63380424      -0.00384830      -1.04200084      -0.63532560      -0.91143122
Si       3.84461558       3.89706570       1.24313730       1.34306095       0.03756656       1.28746606
8
Lattice="5.249 0.0 0.0 0.0 5.249 0.0 0.0 0.0 5.249" Properties=species:S:1:pos:R:3:forces:R:3 config_type=bulk energy=-40.40439615454134 virial="17.17387968827288 2.983426511061203 3.889478999981918 2.983426511061203 16.727515339734786 -7.833628538160573 3.889478999981918 -7.833628538160573 15.500046768844225" label_model=mpa-0 structure_key=a58951541bc37f1537018525134452bc0f8088937856d1a258d44a68620dc863 pbc="T T T"
Si      -0.06838752       0.05235048      -0.10120570       4.96950682      -3.26024224       3.35029268
Si       1.37185841       1.44581555       1.24802079      -2.24117332      -3.67564002       2.65784641
Si       0.00185733       2.70116410       2.58961209      -1.88318733      -2.50809311      -0.56331291
Si       1.27980056       3.87023162       3.79812914      -0.18083116       0.80617910       2.68140963
Si       2.57126390      -0.04170007       2.74619320       1.78317335       1.48782624      -2.50990749
Si       4.00112250       1.19904174       4.08078735      -4.20688096       4.92214934      -3.93204439
Si       2.48704474       2.67203199       0.04994100       2.79748161       1.26030233      -2.87260666
Si       3.97666671       3.91043060       1.19163838      -1.03808901       0.96751837       1.18832272
8
Lattice="5.3214 0.0 0.0 0.0 5.3214 0.0 0.0 0.0 5.3214" Properties=species:S:1:pos:R:3:forces:R:3 config_type=bulk energy=-42.26796710442012 virial="9.408799791248692 0.5742122285987221 0.28848336593032403 0.5742122285987221 9.72437890225849 -2.180710397765354 0.28848336593032403 -2.180710397765354 9.346549098464298" label_model=mpa-0 structure_key=659139562d436d3203f0fb3a2917c082138f556eb2d33c401b4954c9d55676c3 pbc="T T T"
Si      -0.02497886      -0.03834127       0.01683618      -0.55968640       0.98475753       0.18762896
Si       1.38288023       1.45066138       1.21443184      -2.03100004      -2.33949858       2.17647890
Si      -0.00977150       2.72992695       2.60387671       0.46022110      -0.41647464       0.87190344
Si       1.37493267       4.01877199       4.10595773      -1.39471600       0.98947430      -2.48346586
Si       2.65274639       0.04098590       2.65851661      -0.74638593      -0.45297812      -0.74349023
Si       3.92388859       1.33786979       3.94493733       1.09490833       0.63177675       0.68384302
Si       2.54877444       2.70248820      -0.01141620       2.74805106      -0.46121848      -1.13591686
Si       3.89534055       3.92357414       1.29418501       0.42860788       1.06416124       0.44301863
8
Lattice="5.3938 0.0 0.0 0.0 5.3938 0.0 0.0 0.0 5.3938" Properties=species:S:1:pos:R:3:forces:R:3 config_type=bulk energy=-42.75021758901533 virial="4.864852006854014 0.34325923620561044 1.2716070223150575 0.34325923620561044 5.05414227301922 0.46290230340809563 1.2716070223150575 0.46290230340809563 5.122331205001096" label_model=mpa-0 structure_key=38cb6023db956ab545d5a12485645565b799b79de51ccabc8c3bafd979c36a54 pbc="T T T"
Si       0.08421361      -0.06740832       0.01087221      -0.66405629       0.72927521      -0.03530327
Si       1.37075110       1.36833718       1.38544139      -0.22419250      -0.29075375      -0.24022504
Si      -0.04317252       2.72047840       2.60854475       0.49799175      -0.67938173       1.87926626
Si       1.44632339       4.08736302       4.03270794      -1.10728171      -1.07041649      -0.24840205
Si       2.71623411       0.05149562       2.76947728      -0.29915195      -0.95951023      -1.93025108
Si       3.93653213       1.27925817       4.07112955       2.31120365       1.37727538       0.92880286
Si       2.69059438       2.71677461       0.03183295      -0.02232521      -0.31287263      -0.24065219
Si       4.05914428       4.01059843       1.33847270      -0.49218775       1.20638424      -0.11323549
8
Lattice="5.4662 0.0 0.0 0.0 5.4662 0.0 0.0 0.0 5.4662" Properties=species:S:1:pos:R:3:forces:R:3 config_type=bulk energy=-43.09376362767043 virial="0.06934915737116379 -0.44601242257680157 -0.6545224643405589 -0.44601242257680157 0.3341508686483089 -0.33198643688172796 -0.6545224643405589 -0.33198643688172796 0.45677615047449577" label_model=mpa-0 structure_key=2793d913cf2a7d65a9b0eaab798febf42505109c3f8ff7873c0bc978c197813c pbc="T T T"
Si       0.09106267      -0.06179301       0.02414986      -0.86272170      -0.02432594       0.00323172
Si       1.28626710       1.32183224       1.40933572       0.39712242       0.58342514       0.25829480
Si      -0.10751269       2.71043010       2.79892076       1.00030855       0.80328766      -0.64466956
Si       1.41338807       4.06495452       4.13947018      -0.15864262       0.00755455      -0.76063115
Si       2.75580817       0.08130294       2.77399857      -0.16654972      -0.41691457       0.15664704
Si       4.16086142       1.39408452       4.16500143      -0.42057404      -0.92533165       0.42801678
Si       2.68966080       2.65409303      -0.01349606       0.27484375       0.36950427       0.90632965
Si       4.05943392       4.13648465       1.40479181      -0.06378664      -0.39719946      -0.34721929
8
Lattice="5.5386 0.0 0.0 0.0 5.5386 0.0 0.0 0.0 5.5386" Properties=species:S:1:pos:R:3:forces:R:3 config_type=bulk energy=-42.97972555539905 virial="-2.84577258594897 0.47847375235217565 -1.0901324921732138 0.47847375235217565 -3.0629313470535444 0.5391399552195341 -1.0901324921732138 0.5391399552195341 -2.9817487942516645" label_model=mpa-0 structure_key=0ec7deb09c0ceed0e87c05a1b9b7cf9776deff9e73e0dddf7fea98a53e744950 pbc="T T T"
Si       0.05765895      -0.05562510      -0.08253458      -0.24595382       0.46454647       0.79330409
Si       1.41340115       1.45312352       1.36268541      -0.27261557      -0.86671333       0.12180320
Si      -0.01074216       2.72408449       2.81907803      -0.18578425       0.22976538      -0.60933693
Si       1.41208694       4.09402610       4.11557178      -0.08266386      -0.24514975       0.44121135
Si       2.72525999      -0.10652031       2.75343662       0.08621821       1.46378202       0.14159010
Si       4.16488820       1.35540664       4.17229055      -0.38419058      -0.27803783      -0.02736414
Si       2.83307676       2.82735821       0.07105458      -0.35138300      -0.64393968      -0.84840772
Si       4.09943678       4.18416547       1.40500033       1.43637287      -0.12425328      -0.01279995
8
Lattice="5.611000000000001 0.0 0.0 0.0 5.611000000000001 0.0 0.0 0.0 5.611000000000001" Properties=species:S:1:pos:R:3:forces:R:3 config_type=bulk energy=-42.623354299895425 virial="-5.810084090416684 -1.2645992646704196 -1.1441883617509179 -1.2645992646704196 -6.081806076430779 -0.2668469243664444 -1.1441883617509179 -0.2668469243664444 -5.85788011701278" label_model=mpa-0 structure_key=06d857054b1acc94a906b8414ea9768db66a907b516d76860f2a352f4b41c0cf pbc="T T T"
Si       0.02206255      -0.00553306      -0.02670873      -0.27255815       0.20088415       0.00976021
Si       1.49205362       1.41123007       1.29387283      -0.88637331      -0.52325637       0.90745703
Si      -0.09709479       2.80149160       2.68249818       1.30809315      -0.30847908       0.88664311
Si       1.39461550       4.19357748       4.22755249      -0.19589107      -0.16351592      -0.90815036
Si       2.82167687      -0.02717227       2.77466692       0.06891212       0.18023400       0.19782970
Si       4.16720952       1.51729303       4.25102223       1.04296978      -1.77361684      -1.44039869
Si       2.83011496       2.73573777      -0.06431342      -0.76567600       1.31441709       0.46704922
Si       4.20455151       4.11603444       1.32939616      -0.29947654       1.07333298      -0.12019022
8
Lattice="5.6834 0.0 0.0 0.0 5.6834 0.0 0.0 0.0 5.6834" Properties=species:S:1:pos:R:3:forces:R:3 config_type=bulk energy=-42.35559266777061 virial="-9.457875528462631 -0.5365710277224711 1.5670825093062586 -0.5365710277224711 -9.161934757820887 -2.296907232723004 1.5670825093062586 -2.296907232723004 -9.214034206352187" label_model=mpa-0 structure_key=af2901f4f6f1daab5d8a43a65bc6f3e0eef8c9c765fb9e139f24fe5f20638f62 pbc="T T T"
Si      -0.00209242       0.01596053       0.01379422       0.63468534      -0.32526775      -0.14448689
Si       1.48077935       1.38150197       1.48762614      -0.88893545       0.94253160      -1.09552306
Si      -0.01387349       2.91016090       2.74238239       0.97012111      -0.89553658       1.07184754
Si       1.47351463       4.29926840       4.19806153      -0.61078678      -0.33324733       0.69465273
Si       2.75956412       0.03259693       2.81313742       1.75160776      -0.61207431       0.46253830
Si       4.36572658       1.39585313       4.22113408      -0.92023302       0.49339383       0.05141083
Si       2.88521696       2.85018022       0.03816304       0.08099827      -0.43636470      -0.65465031
Si       4.32416191       4.20378007       1.41499705      -1.01745723       1.16656524      -0.38578913
8
Lattice="5.7558 0.0 0.0 0.0 5.7558 0.0 0.0 0.0 5.7558" Properties=species:S:1:pos:R:3:forces:R:3 config_type=bulk energy=-41.94112992101771 virial="-12.589421983742447 1.3417893156674838 0.5246276574941503 1.3417893156674838 -11.794170167656091 1.979762673805244 0.5246276574941503 1.979762673805244 -12.330449540642853" label_model=mpa-0 structure_key=be510cbeafe6263d9b38668c90cdbe01dcb64fb6ad5befe8f3f7a4a3c10b03ca pbc="T T T"
Si       0.01886872      -0.02010131       0.03619177      -0.26378196      -0.06367172      -1.05497924
Si       1.43844394       1.36803296       1.47613552       0.78209906      -0.14359417      -0.15033919
Si       0.05992768       2.81607505       2.79462066      -0.84971298       0.01047511       0.27474530
Si       1.43610725       4.21141114       4.26923965       0.33183009       0.58394404       0.46726744
Si       3.02356320      -0.07781338       2.91414912      -1.57165254      -0.69756636      -0.95870357
Si       4.19900434       1.38831628       4.20701267       1.71023288       0.70366705       1.25169523
Si       2.89556381       2.84572700       0.01672602      -0.58135742      -0.42847953      -0.50947994
Si       4.33853025       4.26742307       1.33726585       0.44234288       0.03522558       0.67979397
8
Lattice="5.1042 0.0 0.0 0.0 5.1042 0.0 0.0 0.0 5.1042" Properties=species:S:1:pos:R:3:forces:R:3 config_type=bulk energy=-39.299520983901694 virial="26.007234677650807 2.380330742573033 -3.148990539940493 2.380330742573033 24.807897903776716 -4.511133047567815 -3.148990539940493 -4.511133047567815 27.36138632376742" label_model=mpa-0 structure_key=899774708df41107f6186d401a1d4a15f91d9e13cfd88989f91288036b3ddf10 pbc="T T T"
Si      -0.03453748      -0.11142992       0.02492565      -0.36471468       1.27458703       0.63750428
Si       1.27499121       1.39202662       1.29990222      -0.35728856      -1.07596922      -2.39703984
Si      -0.06639168       2.42440732       2.60117502       4.56956013       1.73637006       0.10403837
Si       1.25064223       3.82223027       3.77945953       0.17138632      -1.74607771       1.31316323
Si       2.39211016       0.07265926       2.59073839       2.29907298      -0.95584950      -0.99388666
Si       3.84590028       1.32917233       3.72848546      -2.14594954      -4.46188824       3.29433769
Si       2.70961033       2.52660809       0.02878143      -2.29330673       0.39410336      -1.37983310
Si       3.88784368       3.61016127       1.41008031      -1.87875991       4.83472422      -0.57828396
8
Lattice="5.1766 0.0 0.0 0.0 5.1766 0.0 0.0 0.0 5.1766" Properties=species:S:1:pos:R:3:forces:R:3 config_type=bulk energy=-40.777905401410166 virial="19.101219852975184 1.8378437233597655 0.5313486998772385 1.8378437233597655 20.904845548924875 6.69017379624685 0.5313486998772385 6.69017379624685 19.60713610734253" label_model=mpa-0 structure_key=dcefe0f902c442a76b3825d5230a6442cfe566bc5ed183c14bc0ab8ad070c43d pbc="T T T"
Si       0.03273921       0.02450505      -0.07883845      -2.11319220       1.92944711       3.57661780
Si       1.30099015       1.25716341       1.34120634      -0.21849797       1.13394823      -0.76260275
Si       0.06692261       2.56635863       2.74307968      -1.50714975      -0.43973200      -3.06287862
Si       1.09863740       3.99720257       3.88041435       4.44294128      -1.56596650      -0.91207061
Si       2.58237628       0.02640459       2.62419455      -0.17586315      -1.52379460      -0.40103197
Si       3.88318464       1.25252057       3.84975653      -0.76532571       1.18017739       1.08366082
Si       2.57940711       2.64897232      -0.00513106      -1.37530591      -0.90752918      -1.18905375
Si       3.83200411       3.90193760       1.22613307       1.71239342       0.19344956       1.66735908
8
Lattice="5.249 0.0 0.0 0.0 5.249 0.0 0.0 0.0 5.249" Properties=species:S:1:pos:R:3:forces:R:3 config_type=bulk energy=-38.4498565193485 virial="20.482905678949084 3.3679920058011827 5.661814071904972 3.3679920058011827 19.835642574886872 -11.352547341292036 5.661814071904972 -11.352547341292036 17.28492989610714" label_model=mpa-0 structure_key=61a414afd2eceeaf2f255cf459a6cfe4d22e6652ecd8cc24ea8a9a6448b9795f pbc="T T T"
Si      -0.09118336       0.06980064      -0.13494094       7.72850985      -5.54475922       5.37377489
Si       1.39172788       1.49033741       1.22661105      -3.34380441      -5.28986183       4.05509356
Si       0.00247644       2.72671880       2.57798278      -2.65363954      -3.36493954      -1.03511822
Si       1.26898408       3.84805883       3.75192218       0.04088136       0.99341886       3.74206225
Si       2.55351853      -0.05560009       2.78675759       2.44499247       2.17671418      -3.18284412
Si       4.02258000       1.16130565       4.12879980      -6.93107434       7.58082226      -6.21177744
Si       2.44122633       2.68787599       0.06658800       3.96316871       2.39428013      -4.18051187
Si       3.98997229       3.90165747       1.15143450      -1.24903410       1.05432515       1.43932096
8
Lattice="5.3214 0.0 0.0 0.0 5.3214 0.0 0.0 0.0 5.3214" Properties=species:S:1:pos:R:3:forces:R:3 config_type=bulk energy=-41.61218268473107 virial="10.306649268821293 0.8681172888966532 0.38344867254152576 0.8681172888966532 11.038447323721359 -3.381662326626473 0.38344867254152576 -3.381662326626473 10.269034513133144" label_model=mpa-0 structure_key=d7efec776fc144204610a47559624ecccddd2275549a31c60cfa7703e0c93b43 pbc="T T T"
Si      -0.03330514      -0.05112169       0.02244824      -0.76010773       1.31819053       0.25222431
Si       1.40039030       1.49076517       1.17579245      -3.01331940      -3.50236501       3.25982622
Si      -0.01302867       2.75300260       2.58493561       0.61004796      -0.57081838       1.13738634
Si       1.38979356       4.02801266       4.14426031      -1.96023782       1.62008847      -3.50164411
Si       2.65009518       0.05464787       2.65778882      -1.04118380      -0.70074892      -1.06003708
Si       3.90150146       1.34037639       3.92956644       1.51180711       0.91907610       0.97923634
Si       2.51146592       2.71641760      -0.01522160       4.05805102      -0.51800900      -1.68331956
Si       3.86343740       3.90108219       1.28213001       0.59494265       1.43458621       0.61632753
8
Lattice="5.3938 0.0 0.0 0.0 5.3938 0.0 0.0 0.0 5.3938" Properties=species:S:1:pos:R:3:forces:R:3 config_type=bulk energy=-42.325559741790656 virial="5.565400235074374 0.6434942859141664 1.9972805126636715 0.6434942859141664 5.897163236526771 0.6972758990773842 1.9972805126636715 0.6972758990773842 6.05547176827051" label_model=mpa-0 structure_key=bc7c7803718d786830c1f2d5e9b365a79dabe132b56a5be8ac2908ff16f7b068 pbc="T T T"
Si       0.11228482      -0.08987775       0.01449629      -0.91337472       0.97550923      -0.00368257
Si       1.37818480       1.37496624       1.39777185      -0.29645828      -0.41232371      -0.31532391
Si      -0.05756336       2.72833787       2.57909300       0.79395229      -1.01143030       2.55736944
Si       1.47894785       4.10136736       4.02849392      -1.49194582      -1.48121035      -0.28923879
Si       2.72267882       0.06866083       2.79366971      -0.57498508      -1.40548563      -2.88202686
Si       3.90025951       1.25619423       4.07972274       3.24550003       2.03791087       1.53841236
Si       2.68849250       2.72339948       0.04244393      -0.03141851      -0.43059972      -0.35096887
Si       4.06374238       3.99901458       1.33514693      -0.73126991       1.72762960      -0.25454080
8
Lattice="5.4662 0.0 0.0 0.0 5.4662 0.0 0.0 0.0 5.4662" Properties=species:S:1:pos:R:3:forces:R:3 config_type=bulk energy=-42.90993067804206 virial="0.04219594504103165 -0.5833010727424901 -0.9943872896923812 -0.5833010727424901 0.575782695436828 -0.5539787457639467 -0.9943872896923812 -0.5539787457639467 0.7945724512861071" label_model=mpa-0 structure_key=132f5c440d7b9838fdabb9f0a047b9818bf4a19a44f17f2eb8f6c51a85477242 pbc="T T T"
Si       0.12141690      -0.08239068       0.03219981      -1.20057330      -0.04743100      -0.00071122
Si       1.25950614       1.30692632       1.42359763       0.54412225       0.81437234       0.38983793
Si      -0.14335025       2.70287347       2.82086102       1.41951975       1.19792828      -0.99716969
Si       1.42900076       4.05338936       4.15274357      -0.21637069       0.01678879      -1.07151923
Si       2.76337756       0.10840393       2.78763143      -0.22348282      -0.54472885       0.21127418
Si       4.18126522       1.40326269       4.18678524      -0.61817980      -1.36173302       0.70888517
Si       2.67518106       2.62775738      -0.01799475       0.35786349       0.45640381       1.23154838
Si       4.04602856       4.14876287       1.41753908      -0.06289888      -0.53160037      -0.47214552
8
Lattice="5.5386 0.0 0.0 0.0 5.5386 0.0 0.0 0.0 5.5386" Properties=species:S:1:pos:R:3:forces:R:3 config_type=bulk energy=-42.74673406346509 virial="-2.4578639379782534 0.7847530497724676 -1.6006644785783617 0.7847530497724676 -2.8347897541427973 0.8682451065240983 -1.6006644785783617 0.8682451065240983 -2.6952974801443297" label_model=mpa-0 structure_key=9b69703903bd0bab682d32577045396b7320c3846c351cc2e46899de39ff1706 pbc="T T T"
Si       0.07687859      -0.07416680      -0.11004611      -0.34924217       0.64599729       1.09335284
Si       1.42298486       1.47594802       1.35536388      -0.37867848      -1.19365582       0.17934873
Si      -0.01432288       2.70901265       2.83567071      -0.24888383       0.32460372      -0.84917322
Si       1.42123258       4.07405146       4.10277903      -0.11288418      -0.40300080       0.64542856
Si       2.71057999      -0.14202708       2.74814882       0.06646902       2.08832089       0.21007261
Si       4.16853427       1.34565886       4.17840407      -0.54544001      -0.38534328      -0.01591807
Si       2.85433568       2.84671095       0.09473944      -0.54052833      -0.94549258      -1.25499952
Si       4.08126571       4.19423730       1.41178377       2.10918797      -0.13142941      -0.00811193
8
Lattice="5.611000000000001 0.0 0.0 0.0 5.611000000000001 0.0 0.0 0.0 5.611000000000001" Properties=species:S:1:pos:R:3:forces:R:3 config_type=bulk energy=-42.21561451264663 virial="-5.066480401966035 -2.115400908987406 -1.8658290665812607 -2.115400908987406 -5.66651619759284 -0.26674873398054066 -1.8658290665812607 -0.26674873398054066 -5.156367854573644" label_model=mpa-0 structure_key=8bed189a499939cfa3f720b704e256b050c1a4e8363f68a5a219f601890f619e pbc="T T T"
Si       0.02941673      -0.00737742      -0.03561164      -0.40418460       0.29620931       0.03015739
Si       1.52182149       1.41405677       1.25758044      -1.26529570      -0.78085600       1.31092095
Si      -0.12945972       2.80015547       2.64149757       1.85761817      -0.57583557       1.33576642
Si       1.39190400       4.18868664       4.23398665      -0.23314180      -0.23837972      -1.22422098
Si       2.82706915      -0.03622969       2.76438923       0.09547612       0.25154012       0.25601647
Si       4.15352936       1.55547404       4.26527964       1.77930210      -2.62860895      -2.25115562
Si       2.83831995       2.71248370      -0.08575123      -1.30521040       2.09373859       0.83551410
Si       4.20331868       4.08529592       1.30494488      -0.52456389       1.58219222      -0.29299872
8
Lattice="5.6834 0.0 0.0 0.0 5.6834 0.0 0.0 0.0 5.6834" Properties=species:S:1:pos:R:3:forces:R:3 config_type=bulk energy=-41.99230735451191 virial="-9.136645989042178 -1.1066824674019569 2.5503833645769696 -1.1066824674019569 -8.59643947049878 -3.6598998658517905 2.5503833645769696 -3.6598998658517905 -8.703142456730554" label_model=mpa-0 structure_key=61227dfcc435ee4f6be75eab1a2d002abe8d553376fff92f46336b805556eab7 pbc="T T T"
Si      -0.00278990       0.02128071       0.01839229       0.87314252      -0.44958600      -0.15823767
Si       1.50075580       1.36838596       1.50988485      -1.39191362       1.48909223      -1.66889580
Si      -0.01849799       2.93298120       2.70927652       1.51349585      -1.38487215       1.62579496
Si       1.49106951       4.31150787       4.17656538      -0.87894736      -0.51606107       0.98354255
Si       2.73218549       0.04346257       2.80361656       2.55738383      -0.94696286       0.78950617
Si       4.40011877       1.38752085       4.20732878      -1.24577581       0.67592764       0.02004267
Si       2.89972262       2.85300696       0.05088405       0.08042636      -0.60611096      -0.88837674
Si       4.34469921       4.18419010       1.41304606      -1.50781178       1.73857317      -0.70337613
8
Lattice="5.7558 0.0 0.0 0.0 5.7558 0.0 0.0 0.0 5.7558" Properties=species:S:1:pos:R:3:forces:R:3 config_type=bulk energy=-41.60261803734624 virial="-12.608334751826321 2.016665245398534 0.8721261175523922 2.016665245398534 -11.045028640691896 3.014639029925151 0.8721261175523922 3.014639029925151 -12.126206509217528" label_model=mpa-0 structure_key=539eb64c2f13310a570d5c6ab2d5f89773c9d42ad5ca3c2be29cf2b332d25886 pbc="T T T"
Si       0.02515829      -0.02680174       0.04825569      -0.31631509      -0.09281925      -1.39862104
Si       1.43827525       1.34439394       1.48853070       1.08752480      -0.23336522      -0.23252938
Si       0.07990358       2.79546673       2.76686088      -1.17743843       0.06084541       0.39138852
Si       1.43515967       4.17626485       4.25336953       0.45393597       0.79942988       0.62126321
Si       3.07211760      -0.10375118       2.92623216      -2.21755093      -1.26362722      -1.46628263
Si       4.15972245       1.37143838       4.17040022       2.37710170       1.28508519       1.83543994
Si       2.90145175       2.83500267       0.02230136      -0.79361128      -0.61629855      -0.68896885
Si       4.34575700       4.25094742       1.30337113       0.58635326       0.06074975       0.93831023
8
Lattice="4.9956 0.0 0.0 0.0 4.9956 0.0 0.0 0.0 4.9956" Properties=species:S:1:pos:R:3:forces:R:3 config_type=bulk energy=-39.2135019555923 virial="33.14038360442969 -7.026489855577255e-16 1.5035649379736759e-15 -7.026489855577255e-16 33.14038360442969 -3.7922850402765565e-15 1.5035649379736759e-15 -3.7922850402765565e-15 33.14038360442969" label_model=mpa-0 structure_key=df329f2e71edc1f129bf0d3270d685076811788899dfce3be1bf5d335507ae69 pbc="T T T"
Si       0.00000000       0.00000000       0.00000000      -0.00000000      -0.00000000       0.00000000
Si       1.24890000       1.24890000       1.24890000       0.00000000       0.00000000       0.00000000
Si       0.00000000       2.49780000       2.49780000      -0.00000000      -0.00000000      -0.00000000
Si       1.24890000       3.74670000       3.74670000      -0.00000000       0.00000000      -0.00000000
Si       2.49780000       0.00000000       2.49780000       0.00000000      -0.00000000      -0.00000000
Si       3.74670000       1.24890000       3.74670000       0.00000000       0.00000000      -0.00000000
Si       2.49780000       2.49780000       0.00000000       0.00000000      -0.00000000       0.00000000
Si       3.74670000       3.74670000       1.24890000      -0.00000000      -0.00000000      -0.00000000
8
Lattice="5.092133333333333 0.0 0.0 0.0 5.092133333333333 0.0 0.0 0.0 5.092133333333333" Properties=species:S:1:pos:R:3:forces:R:3 config_type=bulk energy=-40.88344262643349 virial="25.07384098915673 5.416492224464599e-16 1.0089678947514533e-15 5.416492224464599e-16 25.073840989156714 -2.788762451101831e-15 1.0089678947514533e-15 -2.788762451101831e-15 25.07384098915679" label_model=mpa-0 structure_key=7ab5c96b1b7a4157e6e91715c11c905d99d457da6033197cb49e8a6456e9e7e3 pbc="T T T"
Si       0.00000000       0.00000000       0.00000000       0.00000000      -0.00000000      -0.00000000
Si       1.27303333       1.27303333       1.27303333      -0.00000000       0.00000000      -0.00000000
Si       0.00000000       2.54606667       2.54606667       0.00000000       0.00000000      -0.00000000
Si       1.27303333       3.81910000       3.81910000       0.00000000       0.00000000       0.00000000
Si       2.54606667       0.00000000       2.54606667      -0.00000000      -0.00000000       0.00000000
Si       3.81910000       1.27303333       3.81910000      -0.00000000      -0.00000000       0.00000000
Si       2.54606667       2.54606667       0.00000000      -0.00000000       0.00000000       0.00000000
Si       3.81910000       3.81910000       1.27303333      -0.00000000       0.00000000       0.00000000
8
Lattice="5.188666666666666 0.0 0.0 0.0 5.188666666666666 0.0 0.0 0.0 5.188666666666666" Properties=species:S:1:pos:R:3:forces:R:3 config_type=bulk energy=-42.07395828395783 virial="17.207735789907613 -1.4198431540620375e-15 -1.1443542057337256e-15 -1.4198431540620375e-15 17.20773578990761 5.838670228165188e-16 -1.1443542057337256e-15 5.838670228165188e-16 17.207735789907613" label_model=mpa-0 structure_key=398eaacc2f42aa78965bf89dfe8e07468a4e5fb66d27854fae6c637683559d64 pbc="T T T"
Si       0.00000000       0.00000000       0.00000000      -0.00000000       0.00000000      -0.00000000
Si       1.29716667       1.29716667       1.29716667       0.00000000       0.00000000       0.00000000
Si       0.00000000       2.59433333       2.59433333      -0.00000000      -0.00000000       0.00000000
Si       1.29716667       3.89150000       3.89150000       0.00000000      -0.00000000       0.00000000
Si       2.59433333       0.00000000       2.59433333       0.00000000       0.00000000      -0.00000000
Si       3.89150000       1.29716667       3.89150000       0.00000000      -0.00000000      -0.00000000
Si       2.59433333       2.59433333       0.00000000      -0.00000000      -0.00000000      -0.00000000
Si       3.89150000       3.89150000       1.29716667       0.00000000       0.00000000      -0.00000000
8
Lattice="5.2852 0.0 0.0 0.0 5.2852 0.0 0.0 0.0 5.2852" Properties=species:S:1:pos:R:3:forces:R:3 config_type=bulk energy=-42.82531173917221 virial="10.161381912421115 1.2696012617093355e-15 -8.692443240816675e-15 1.2696012617093355e-15 10.161381912421122 9.414140613322771e-16 -8.692443240816675e-15 9.414140613322771e-16 10.161381912421154" label_model=mpa-0 structure_key=1048f5d44f5378825d570ad8780c9de43dd95729135684dcee8d53571f1bac90 pbc="T T T"
Si       0.00000000       0.00000000       0.00000000       0.00000000       0.00000000      -0.00000000
Si       1.32130000       1.32130000       1.32130000       0.00000000       0.00000000      -0.00000000
Si       0.00000000       2.64260000       2.64260000       0.00000000      -0.00000000       0.00000000
Si       1.32130000       3.96390000       3.96390000      -0.00000000      -0.00000000       0.00000000
Si       2.64260000       0.00000000       2.64260000      -0.00000000       0.00000000      -0.00000000
Si       3.96390000       1.32130000       3.96390000       0.00000000      -0.00000000       0.00000000
Si       2.64260000       2.64260000       0.00000000       0.00000000      -0.00000000      -0.00000000
Si       3.96390000       3.96390000       1.32130000      -0.00000000      -0.00000000       0.00000000
8
Lattice="5.381733333333333 0.0 0.0 0.0 5.381733333333333 0.0 0.0 0.0 5.381733333333333" Properties=species:S:1:pos:R:3:forces:R:3 config_type=bulk energy=-43.21585321652005 virial="4.388827304210977 -3.747631786119728e-15 6.90488051599081e-15 -3.747631786119728e-15 4.388827304210987 -4.2884392557437235e-16 6.90488051599081e-15 -4.2884392557437235e-16 4.388827304210991" label_model=mpa-0 structure_key=f2fe0be6d6d98ee1500be6e9ba5420780b506265a4794d1cbe71f6dbaebbd2e7 pbc="T T T"
Si       0.00000000       0.00000000       0.00000000      -0.00000000       0.00000000       0.00000000
Si       1.34543333       1.34543333       1.34543333       0.00000000      -0.00000000      -0.00000000
Si       0.00000000       2.69086667       2.69086667       0.00000000      -0.00000000       0.00000000
Si       1.34543333       4.03630000       4.03630000       0.00000000      -0.00000000      -0.00000000
Si       2.69086667       0.00000000       2.69086667      -0.00000000      -0.00000000       0.00000000
Si       4.03630000       1.34543333       4.03630000      -0.00000000      -0.00000000      -0.00000000
Si       2.69086667       2.69086667       0.00000000      -0.00000000       0.00000000      -0.00000000
Si       4.03630000       4.03630000       1.34543333      -0.00000000      -0.00000000       0.00000000
8
Lattice="5.478266666666666 0.0 0.0 0.0 5.478266666666666 0.0 0.0 0.0 5.478266666666666" Properties=species:S:1:pos:R:3:forces:R:3 config_type=bulk energy=-43.31645227211583 virial="-0.5193694557913165 2.7732811298388382e-15 -8.049958579245312e-15 2.7732811298388382e-15 -0.519369455791311 1.2224729914564472e-15 -8.049958579245312e-15 1.2224729914564472e-15 -0.5193694557913185" label_model=mpa-0 structure_key=513124b345afd3df58cbac385d9d1935a54d18369d181884398d1a24b293f61f pbc="T T T"
Si       0.00000000       0.00000000       0.00000000       0.00000000      -0.00000000       0.00000000
Si       1.36956667       1.36956667       1.36956667      -0.00000000      -0.00000000       0.00000000
Si       0.00000000       2.73913333       2.73913333       0.00000000       0.00000000      -0.00000000
Si       1.36956667       4.10870000       4.10870000       0.00000000      -0.00000000      -0.00000000
Si       2.73913333       0.00000000       2.73913333       0.00000000       0.00000000       0.00000000
Si       4.10870000       1.36956667       4.10870000      -0.00000000       0.00000000      -0.00000000
Si       2.73913333       2.73913333       0.00000000      -0.00000000       0.00000000      -0.00000000
Si       4.10870000       4.10870000       1.36956667       0.00000000      -0.00000000      -0.00000000
8
Lattice="5.574800000000001 0.0 0.0 0.0 5.574800000000001 0.0 0.0 0.0 5.574800000000001" Properties=species:S:1:pos:R:3:forces:R:3 config_type=bulk energy=-43.17334157333946 virial="-4.883415554476399 -6.031590826289046e-15 -4.9243981731247045e-15 -6.031590826289046e-15 -4.8834155544764 -5.0205616730491945e-15 -4.9243981731247045e-15 -5.0205616730491945e-15 -4.883415554476401" label_model=mpa-0 structure_key=be6dbb1017ec35f7765bd6a032cf77090cf40c2addbf7129d86e3ea0ee948076 pbc="T T T"
Si       0.00000000       0.00000000       0.00000000       0.00000000       0.00000000       0.00000000
Si       1.39370000       1.39370000       1.39370000       0.00000000       0.00000000       0.00000000
Si       0.00000000       2.78740000       2.78740000       0.00000000       0.00000000       0.00000000
Si       1.39370000       4.18110000       4.18110000      -0.00000000      -0.00000000      -0.00000000
Si       2.78740000       0.00000000       2.78740000       0.00000000       0.00000000       0.00000000
Si       4.18110000       1.39370000       4.18110000      -0.00000000      -0.00000000      -0.00000000
Si       2.78740000       2.78740000       0.00000000       0.00000000       0.00000000       0.00000000
Si       4.18110000       4.18110000       1.39370000      -0.00000000      -0.00000000      -0.00000000
8
Lattice="5.671333333333333 0.0 0.0 0.0 5.671333333333333 0.0 0.0 0.0 5.671333333333333" Properties=species:S:1:pos:R:3:forces:R:3 config_type=bulk energy=-42.815807050385764 virial="-8.982466584020072 -8.716373958218348e-16 8.899292054647287e-17 -8.716373958218348e-16 -8.982466584020077 9.35140373504396e-16 8.899292054647287e-17 9.35140373504396e-16 -8.982466584020072" label_model=mpa-0 structure_key=3f6fffdaa9275962f4bf337385bb07ab74f410fb2aa92be5af8faf2bac74c15b pbc="T T T"
Si       0.00000000       0.00000000       0.00000000      -0.00000000       0.00000000       0.00000000
Si       1.41783333       1.41783333       1.41783333       0.00000000      -0.00000000       0.00000000
Si       0.00000000       2.83566667       2.83566667      -0.00000000      -0.00000000      -0.00000000
Si       1.41783333       4.25350000       4.25350000       0.00000000       0.00000000      -0.00000000
Si       2.83566667       0.00000000       2.83566667      -0.00000000       0.00000000      -0.00000000
Si       4.25350000       1.41783333       4.25350000       0.00000000       0.00000000       0.00000000
Si       2.83566667       2.83566667       0.00000000      -0.00000000      -0.00000000       0.00000000
Si       4.25350000       4.25350000       1.41783333       0.00000000       0.00000000       0.00000000
8
Lattice="5.7678666666666665 0.0 0.0 0.0 5.7678666666666665 0.0 0.0 0.0 5.7678666666666665" Properties=species:S:1:pos:R:3:forces:R:3 config_type=bulk energy=-42.264213800489706 virial="-12.716533636251192 7.751956049236396e-16 9.651779427987109e-16 7.751956049236396e-16 -12.716533636251176 5.61707382466152e-16 9.651779427987109e-16 5.61707382466152e-16 -12.716533636251203" label_model=mpa-0 structure_key=aeed7629377c071d7c9be1dd38d24c67e395c01e6bcd3300084a777aa1aa8a0a pbc="T T T"
Si       0.00000000       0.00000000       0.00000000       0.00000000      -0.00000000       0.00000000
Si       1.44196667       1.44196667       1.44196667      -0.00000000       0.00000000      -0.00000000
Si       0.00000000       2.88393333       2.88393333       0.00000000      -0.00000000      -0.00000000
Si       1.44196667       4.32590000       4.32590000      -0.00000000      -0.00000000       0.00000000
Si       2.88393333       0.00000000       2.88393333      -0.00000000       0.00000000      -0.00000000
Si       4.32590000       1.44196667       4.32590000       0.00000000       0.00000000       0.00000000
Si       2.88393333       2.88393333       0.00000000      -0.00000000      -0.00000000       0.00000000
Si       4.32590000       4.32590000       1.44196667       0.00000000      -0.00000000       0.00000000
8
Lattice="5.8644 0.0 0.0 0.0 5.8644 0.0 0.0 0.0 5.8644" Properties=species:S:1:pos:R:3:forces:R:3 config_type=bulk energy=-41.552620120608644 virial="-15.757377478326218 8.265733652862517e-17 -1.873583132675568e-15 8.265733652862517e-17 -15.7573774783262 -1.4278990559850713e-15 -1.873583132675568e-15 -1.4278990559850713e-15 -15.757377478326218" label_model=mpa-0 structure_key=c55b9fd38169fbf6f5aec5ef9ed97351fd71a7f0357c53b1177768f9a5ef4b37 pbc="T T T"
Si       0.00000000       0.00000000       0.00000000       0.00000000       0.00000000      -0.00000000
Si       1.46610000       1.46610000       1.46610000      -0.00000000       0.00000000      -0.00000000
Si       0.00000000       2.93220000       2.93220000       0.00000000      -0.00000000       0.00000000
Si       1.46610000       4.39830000       4.39830000       0.00000000      -0.00000000      -0.00000000
Si       2.93220000       0.00000000       2.93220000       0.00000000      -0.00000000       0.00000000
Si       4.39830000       1.46610000       4.39830000      -0.00000000      -0.00000000      -0.00000000
Si       2.93220000       2.93220000       0.00000000      -0.00000000      -0.00000000      -0.00000000
Si       4.39830000       4.39830000       1.46610000       0.00000000       0.00000000      -0.00000000
8
Lattice="4.9956 0.0 0.0 0.0 4.9956 0.0 0.0 0.0 4.9956" Properties=species:S:1:pos:R:3:forces:R:3 config_type=bulk energy=-39.09381706037926 virial="33.28212772410752 0.7851371562470851 -0.8707307212775308 0.7851371562470851 33.188279359844486 -1.0326702734440887 -0.8707307212775308 -1.0326702734440887 33.39786467629885" label_model=mpa-0 structure_key=9d3478aed70fe18349be698a754da8aa7a43eae7a0fc63fb7ea15ec0339f1240 pbc="T T T"
Si      -0.00863437      -0.02785748       0.00623141      -0.16538406       0.43398401       0.23335037
Si       1.24863530       1.27789415       1.25486305      -0.19398191      -0.34543950      -0.76203353
Si      -0.01659792       2.46587683       2.51006876       0.92055640       0.41315512       0.14739823
Si       1.24254806       3.74522007       3.73452738       0.12344378      -0.57554804       0.42936677
Si       2.45780254       0.01816481       2.50745960       0.75702605      -0.40364837      -0.49035878
Si       3.75113757       1.26218058       3.72178386      -0.23808914      -1.08788699       0.74415759
Si       2.53717758       2.49142702       0.00719536      -0.68790585       0.20561718      -0.45086769
Si       3.76162342       3.69220282       1.28240758      -0.51566527       1.35976660       0.14898703
8
Lattice="5.092133333333333 0.0 0.0 0.0 5.092133333333333 0.0 0.0 0.0 5.092133333333333" Properties=species:S:1:pos:R:3:forces:R:3 config_type=bulk energy=-40.80323309088668 virial="25.11888874913097 0.7853842359533304 0.18212433913228324 0.7853842359533304 25.239045090431432 1.755082707023848 0.18212433913228324 1.755082707023848 25.141187562805218" label_model=mpa-0 structure_key=d1a64d96b8d843636d50452c5fef33f27bd775ba6a62935c5d5388f6bf371b2a pbc="T T T"
Si       0.00818480       0.00612626      -0.01970961      -0.46363756       0.35192030       0.79635462
Si       1.27474337       1.26378668       1.28479742      -0.04820841       0.30422125      -0.22181754
Si       0.01673065       2.54058132       2.58476159      -0.52022503       0.07169230      -0.92964837
Si       1.22415518       3.84778814       3.81859109       1.13048026      -0.35043593      -0.00341665
Si       2.54458574       0.00660115       2.55504030      -0.01797343      -0.40858948      -0.09000631
Si       3.81928366       1.26262598       3.81092663      -0.24573033       0.30740701       0.31550270
Si       2.54384344       2.56123475      -0.00128277      -0.39862298      -0.20653510      -0.38290977
Si       3.80648853       3.82397190       1.25602910       0.56391749      -0.06968034       0.51594132
8
Lattice="5.188666666666666 0.0 0.0 0.0 5.188666666666666 0.0 0.0 0.0 5.188666666666666" Properties=species:S:1:pos:R:3:forces:R:3 config_type=bulk energy=-41.83760305903568 virial="17.796408290864818 1.2738945585493373 1.3088767879866865 1.2738945585493373 17.716828107302085 -2.509938708661314 1.3088767879866865 -2.509938708661314 17.61669082588357" label_model=mpa-0 structure_key=4231da9e8fdea5d12ba5523c51f83f9715e5b0c71de227261f9fc4ad679e1449 pbc="T T T"
Si      -0.02279584       0.01745016      -0.03373523       1.42789924      -0.72174266       0.86229712
Si       1.31703614       1.34168852       1.27575693      -0.61510297      -1.17289968       0.71249477
Si       0.00061911       2.61988803       2.58270403      -0.66125285      -0.89372007      -0.05287808
Si       1.28635019       3.86932721       3.84529305      -0.19108879       0.32955982       0.87834507
Si       2.57658797      -0.01390002       2.63489773       0.57952576       0.41320985      -0.96871885
Si       3.91295750       1.25943058       3.93951245      -0.98780307       1.43515484      -1.02366779
Si       2.54851491       2.61017733       0.01664700       0.88973796       0.14036268      -0.90512461
Si       3.90480557       3.88272687       1.25696279      -0.44191528       0.47007522       0.49725236
8
Lattice="5.2852 0.0 0.0 0.0 5.2852 0.0 0.0 0.0 5.2852" Properties=species:S:1:pos:R:3:forces:R:3 config_type=bulk energy=-42.74700329244034 virial="10.375732814117335 0.15839053862792352 0.1207395029764327 0.15839053862792352 10.392484625206993 -0.5215232233156522 0.1207395029764327 -0.5215232233156522 10.35988583384761" label_model=mpa-0 structure_key=0959c4831bac7c39bd159cfc39c8a8f0febe6d3bb500d58a4b7aa2902dbe0467 pbc="T T T"
Si      -0.00832629      -0.01278042       0.00561206      -0.20295634       0.34019084       0.06729636
Si       1.33881008       1.36140379       1.28266061      -0.55134540      -0.64289266       0.59338724
Si      -0.00325717       2.66567565       2.62365890       0.16646840      -0.13327420       0.32431391
Si       1.33616089       3.97314066       4.00220258      -0.42761981       0.20898831      -0.77410579
Si       2.63994880       0.01366197       2.64187220      -0.25606276      -0.12160688      -0.23625462
Si       3.94151286       1.32380660       3.94852911       0.37601022       0.19231951       0.21615696
Si       2.60529148       2.65652940      -0.00380540       0.76324735      -0.20494546      -0.32822501
Si       3.93199685       3.94140805       1.30924500       0.13225833       0.36122054       0.13743095
8
Lattice="5.381733333333333 0.0 0.0 0.0 5.381733333333333 0.0 0.0 0.0 5.381733333333333" Properties=species:S:1:pos:R:3:forces:R:3 config_type=bulk energy=-43.164274312476294 virial="4.5342220743568955 0.012972285824388589 0.2753170599231482 0.012972285824388589 4.55538987188726 0.10389040227143849 0.2753170599231482 0.10389040227143849 4.5587796361604225" label_model=mpa-0 structure_key=907c346ddb211bdb81ad682e0aecf904b210ca94d62eb9bdb5691af2a5e8e270 pbc="T T T"
Si       0.02807120      -0.02246944       0.00362407      -0.20542707       0.24314482      -0.03073820
Si       1.35286703       1.35206239       1.35776380      -0.07888140      -0.08636381      -0.07994176
Si      -0.01439084       2.69872613       2.66141492       0.11179356      -0.17713471       0.60160740
Si       1.37805780       4.05030434       4.03208598      -0.35903713      -0.33679264      -0.10613666
Si       2.69731137       0.01716521       2.71505909      -0.01596209      -0.25428434      -0.50317481
Si       4.00002738       1.32236939       4.04489318       0.68439240       0.36156143       0.18159414
Si       2.68876479       2.69749154       0.01061098      -0.00463064      -0.09719125      -0.07013611
Si       4.04089809       4.02471614       1.34210757      -0.13224763       0.34706050       0.00692599
8
Lattice="5.478266666666666 0.0 0.0 0.0 5.478266666666666 0.0 0.0 0.0 5.478266666666666" Properties=species:S:1:pos:R:3:forces:R:3 config_type=bulk energy=-43.29261978375073 virial="-0.5168940596597232 -0.15301948447231845 -0.1659576415481814 -0.15301948447231845 -0.4951932803787367 -0.06692950323239469 -0.1659576415481814 -0.06692950323239469 -0.48105603254783347" label_model=mpa-0 structure_key=98cfdb79ea9df997e2afe99228ab694ba83da9ef50c56c0d4e5baa5d93e7f6a2 pbc="T T T"
Si       0.03035422      -0.02059767       0.00804995      -0.26276882       0.00147966       0.00577891
Si       1.34280570       1.35466075       1.38382857       0.12504354       0.17672846       0.06466811
Si      -0.03583756       2.73157670       2.76107359       0.29406894       0.21351867      -0.15853819
Si       1.38517936       4.09713484       4.12197339      -0.05075884      -0.00078355      -0.22609916
Si       2.74670272       0.02710098       2.75276619      -0.05535779      -0.14470037       0.05082414
Si       4.12910381       1.37874484       4.13048381      -0.11663337      -0.25144980       0.08553555
Si       2.72465360       2.71279768      -0.00449869       0.09689812       0.13853163       0.28913624
Si       4.09529464       4.12097822       1.38231394      -0.03049178      -0.13332469      -0.11130561
8
Lattice="5.574800000000001 0.0 0.0 0.0 5.574800000000001 0.0 0.0 0.0 5.574800000000001" Properties=species:S:1:pos:R:3:forces:R:3 config_type=bulk energy=-43.14568565470965 virial="-4.850264767103959 0.09398555977043786 -0.28399213283195174 0.09398555977043786 -4.874775824739425 0.10810882907028031 -0.28399213283195174 0.10810882907028031 -4.863622167323373" label_model=mpa-0 structure_key=4c61a52b02ce97c490567e82d180f04e110d12df2da491efd55796d3ba204a57 pbc="T T T"
Si       0.01921965      -0.01854170      -0.02751153      -0.07325915       0.14541730       0.23890601
Si       1.40328372       1.41652451       1.38637847      -0.08195234      -0.26688819       0.03366539
Si      -0.00358072       2.77232816       2.80399268      -0.05552214       0.06833569      -0.18185625
Si       1.40284565       4.16112537       4.16830726      -0.02621454      -0.04620182       0.12058371
Si       2.77272000      -0.03550677       2.78211221       0.04960862       0.41409853       0.03488050
Si       4.18474607       1.38395221       4.18721352      -0.10361680      -0.08513102      -0.01602612
Si       2.80865892       2.80675274       0.02368486      -0.08833455      -0.17486865      -0.22504715
Si       4.16292893       4.19117182       1.40048344       0.37929089      -0.05476184      -0.00510609
8
Lattice="5.671333333333333 0.0 0.0 0.0 5.671333333333333 0.0 0.0 0.0 5.671333333333333" Properties=species:S:1:pos:R:3:forces:R:3 config_type=bulk energy=-42.77427804301095 virial="-8.96641634388246 -0.21935346893851046 -0.20736651652059535 -0.21935346893851046 -8.984149427707385 -0.10500347028881529 -0.20736651652059535 -0.10500347028881529 -8.971741079605163" label_model=mpa-0 structure_key=e0ec7da75117e68d5c395811731661b0214fd407991481326ef2d5488e0b32d2 pbc="T T T"
Si       0.00735418      -0.00184435      -0.00890291      -0.06094351       0.05226420      -0.00034514
Si       1.44760121       1.42066002       1.38154094      -0.25403557      -0.14304667       0.24400737
Si      -0.03236493       2.83433053       2.79466606       0.36662949      -0.03444943       0.23316128
Si       1.41512183       4.24860916       4.25993416      -0.07095994      -0.03867542      -0.28364120
Si       2.84105896      -0.00905742       2.82538897       0.01537821       0.05292266       0.06219418
Si       4.23981984       1.45601434       4.26775741       0.19081257      -0.45687624      -0.34287793
Si       2.84387165       2.81241259      -0.02143781      -0.13765105       0.28737062       0.07751617
Si       4.25226717       4.22276148       1.39338205      -0.04923020       0.28049029       0.00998528
8
Lattice="5.7678666666666665 0.0 0.0 0.0 5.7678666666666665 0.0 0.0 0.0 5.7678666666666665" Properties=species:S:1:pos:R:3:forces:R:3 config_type=bulk energy=-42.22447672519088 virial="-12.750246811447616 -0.05423666160345175 0.3172289710078651 -0.05423666160345175 -12.721274427011942 -0.48768950627318686 0.3172289710078651 -0.48768950627318686 -12.725023753541945" label_model=mpa-0 structure_key=d0978786c7e5bb77360931a2e2c7ac7af36813ca7884f2878db795968b822087 pbc="T T T"
Si      -0.00069747       0.00532018       0.00459807       0.20476885      -0.10611654      -0.06098787
Si       1.46194312       1.42885066       1.46422538      -0.22463064       0.23092723      -0.27950998
Si      -0.00462450       2.90675363       2.85082746       0.25061242      -0.23181676       0.27740510
Si       1.45952154       4.33813947       4.30440384      -0.18310598      -0.06722263       0.19661843
Si       2.85655471       0.01086564       2.87441247       0.47865849      -0.15798218       0.09523019
Si       4.36029219       1.43363438       4.31209469      -0.29733939       0.16047990       0.04016899
Si       2.89843899       2.88676007       0.01272101       0.05168834      -0.13540029      -0.19867453
Si       4.34643730       4.30631002       1.44001568      -0.28065207       0.30713126      -0.07025032
8
Lattice="5.8644 0.0 0.0 0.0 5.8644 0.0 0.0 0.0 5.8644" Properties=species:S:1:pos:R:3:forces:R:3 config_type=bulk energy=-41.51124791846932 virial="-15.788317415513642 0.29842798832535644 0.10526844791849788 0.29842798832535644 -15.723857703620425 0.4450036191112867 0.10526844791849788 0.4450036191112867 -15.764514479489032" label_model=mpa-0 structure_key=1a98092c0b69ba46ce1d34f200c3a582f11727f59704f11ffdec0fafd7410d98 pbc="T T T"
Si       0.00628957      -0.00670044       0.01206392      -0.10565441      -0.03044543      -0.32869743
Si       1.46593131       1.44246099       1.47849517       0.23734439      -0.01968487      -0.03153995
Si       0.01997589       2.91159168       2.90444022      -0.26131826      -0.01393950       0.06405464
Si       1.46515242       4.36315371       4.38242988       0.11920019       0.17270850       0.15823491
Si       2.98075440      -0.02593779       2.94428304      -0.45673091      -0.10810958      -0.24329314
Si       4.35901811       1.44922209       4.36168756       0.50054920       0.10743596       0.33690987
Si       2.93808794       2.92147567       0.00557534      -0.19154844      -0.11919780      -0.17106067
Si       4.40552675       4.38182436       1.43220528       0.15815825       0.01123272       0.21539177
8
Lattice="4.9956 0.0 0.0 0.0 4.9956 0.0 0.0 0.0 4.9956" Properties=species:S:1:pos:R:3:forces:R:3 config_type=bulk energy=-38.73020091222748 virial="33.73561258735531 1.5001245283520412 -1.785805787337193 1.5001245283520412 33.36927627017127 -2.24015182965164 -1.785805787337193 -2.24015182965164 34.16877156553774" label_model=mpa-0 structure_key=0d29203381fe6e6014dc9dbaf0c1f07e2f170e89aa0975f14ddc061a381d0b34 pbc="T T T"
Si      -0.01726874      -0.05571496       0.01246283      -0.30295622       0.82144872       0.43822957
Si       1.24837060       1.30688831       1.26082611      -0.31854136      -0.63911830      -1.49423511
Si      -0.03319584       2.43395366       2.52233751       2.07825480       0.86584521       0.24461634
Si       1.23619612       3.74374013       3.72235476       0.19935048      -1.11272205       0.80950602
Si       2.41780508       0.03632963       2.51711920       1.43903467      -0.71904673      -0.82552183
Si       3.75557514       1.27546117       3.69686773      -0.70366771      -2.29407554       1.59345134
Si       2.57655516       2.48505404       0.01439072      -1.35439649       0.33991452      -0.86801401
Si       3.77654684       3.63770564       1.31591515      -1.03707817       2.73775416       0.10196768
8
Lattice="5.092133333333333 0.0 0.0 0.0 5.092133333333333 0.0 0.0 0.0 5.092133333333333" Properties=species:S:1:pos:R:3:forces:R:3 config_type=bulk energy=-40.56221271740731 virial="25.240502156556083 1.4077998916007906 0.35739948488088913 1.4077998916007906 25.733170923155217 3.5860812104737425 0.35739948488088913 3.5860812104737425 25.347779946284888" label_model=mpa-0 structure_key=eb27dafa3c11c215afce98faf9fbdb166904b398de3816cf5bad9b2aa35c804e pbc="T T T"
Si       0.01636961       0.01225252      -0.03941922      -0.99816845       0.82780562       1.72099223
Si       1.27645341       1.25454004       1.29656151      -0.11668133       0.60695362      -0.44197115
Si       0.03346130       2.53509598       2.62345651      -0.95867094      -0.00229025      -1.80204296
Si       1.17527703       3.87647629       3.81808217       2.33074726      -0.73224245      -0.16250184
Si       2.54310481       0.01320230       2.56401394      -0.04987162      -0.83411241      -0.18029352
Si       3.81946732       1.25221862       3.80275327      -0.48108825       0.61851278       0.61826529
Si       2.54162022       2.57640283      -0.00256553      -0.78960776      -0.44060344      -0.74200285
Si       3.79387706       3.82884380       1.23902487       1.06334107      -0.04402347       0.98955481
8
Lattice="5.188666666666666 0.0 0.0 0.0 5.188666666666666 0.0 0.0 0.0 5.188666666666666" Properties=species:S:1:pos:R:3:forces:R:3 config_type=bulk energy=-41.074486503686515 virial="19.299709487999706 2.4483968330121475 2.7310180174213996 2.4483968330121475 19.021333054718802 -5.358885370008467 2.7310180174213996 -5.358885370008467 18.54110019785094" label_model=mpa-0 structure_key=77d1df97b5e6dd0163f4b32e176f38a83d189b1e6028e73980d30591e332bf14 pbc="T T T"
Si      -0.04559168       0.03490032      -0.06747047       3.20169236      -1.86879658       2.04426505
Si       1.33690561       1.38621037       1.25434719      -1.41322051      -2.50444175       1.66050386
Si       0.00123822       2.64544273       2.57107472      -1.35733515      -1.80235716      -0.24533254
Si       1.27553371       3.84715441       3.79908609      -0.26108028       0.60905319       1.85601760
Si       2.55884260      -0.02780004       2.67546213       1.21858440       0.96328670      -1.87248551
Si       3.93441500       1.22169449       3.98752490      -2.46730038       3.19026332      -2.40928293
Si       2.50269650       2.62602133       0.03329400       1.88103644       0.59871576      -1.94233016
Si       3.91811114       3.87395374       1.21675892      -0.80237688       0.81427651       0.90864465
8
Lattice="5.2852 0.0 0.0 0.0 5.2852 0.0 0.0 0.0 5.2852" Properties=species:S:1:pos:R:3:forces:R:3 config_type=bulk energy=-42.49453843253515 virial="10.951568604596838 0.36841877981164134 0.23279571568860874 0.36841877981164134 11.056128937457283 -1.29737166642836 0.23279571568860874 -1.29737166642836 10.904188675601539" label_model=mpa-0 structure_key=b6bac802b1d06e216e92395f314099fc287fb9ebc4db4231a968711157773b26 pbc="T T T"
Si      -0.01665257      -0.02556085       0.01122412      -0.40547627       0.68724167       0.14341952
Si       1.35632015       1.40150759       1.24402123      -1.25907566      -1.46169333       1.34869990
Si      -0.00651433       2.68875130       2.60471780       0.33544594      -0.27439290       0.63498470
Si       1.35102178       3.98238133       4.04050516      -0.91089071       0.55475127      -1.64916117
Si       2.63729759       0.02732393       2.64114441      -0.52474127      -0.28328703      -0.50274355
Si       3.91912573       1.32631320       3.93315822       0.75812961       0.42238342       0.46453933
Si       2.56798296       2.67045880      -0.00761080       1.73149677      -0.37603116      -0.73071188
Si       3.90009370       3.91891610       1.29719000       0.27511161       0.73102807       0.29097315
8
Lattice="5.381733333333333 0.0 0.0 0.0 5.381733333333333 0.0 0.0 0.0 5.381733333333333" Properties=species:S:1:pos:R:3:forces:R:3 config_type=bulk energy=-43.00203504642449 virial="4.948597433279503 0.13182716356162086 0.701723574094896 0.13182716356162086 5.033254042713375 0.25875578329128596 0.701723574094896 0.25875578329128596 5.0554588109901415" label_model=mpa-0 structure_key=cbf414e485faf36f959e260b67795bbb785eb38e7f97394c72f4a6a48e8541f8 pbc="T T T"
Si       0.05614241      -0.04493888       0.00724814      -0.42784454       0.48900399      -0.04175735
Si       1.36030073       1.35869145       1.37009426      -0.15337784      -0.18559131      -0.16174543
Si      -0.02878168       2.70658560       2.63196317       0.27679893      -0.40387071       1.23515163
Si       1.41068226       4.06430868       4.02787196      -0.73221926      -0.69863705      -0.19081098
Si       2.70375608       0.03433042       2.73925152      -0.11216019      -0.57682520      -1.15355692
Si       3.96375475       1.29930545       4.05348637       1.46287725       0.82178458       0.49080210
Si       2.68666292       2.70411641       0.02122197      -0.01445962      -0.20206456      -0.14915248
Si       4.04549619       4.01313229       1.33878180      -0.29961473       0.75620025      -0.02893058
8
Lattice="5.478266666666666 0.0 0.0 0.0 5.478266666666666 0.0 0.0 0.0 5.478266666666666" Properties=species:S:1:pos:R:3:forces:R:3 config_type=bulk energy=-43.21982208342316 virial="-0.5120048452502141 -0.2942734778411814 -0.36848560664016 -0.2942734778411814 -0.4119588206469709 -0.1678303455763426 -0.36848560664016 -0.1678303455763426 -0.356872921422643" label_model=mpa-0 structure_key=e7b425594820b2024b41b4610a0df05057d233046afe6b2be9b5885fb3428888 pbc="T T T"
Si       0.06070845      -0.04119534       0.01609991      -0.54260383      -0.00394415       0.00976428
Si       1.31604474       1.33975483       1.39809048       0.25661596       0.36290922       0.14512208
Si      -0.07167512       2.72402007       2.78301384       0.61644429       0.46760063      -0.36096813
Si       1.40079205       4.08556968       4.13524679      -0.10424803       0.00236310      -0.46761361
Si       2.75427211       0.05420196       2.76639905      -0.10977045      -0.28422991       0.09975479
Si       4.14950761       1.38792301       4.15226762      -0.25354340      -0.54478147       0.21411101
Si       2.71017387       2.68646202      -0.00899738       0.18647973       0.26341592       0.58174947
Si       4.08188928       4.13325643       1.39506121      -0.04937427      -0.26333335      -0.22191988
8
Lattice="5.574800000000001 0.0 0.0 0.0 5.574800000000001 0.0 0.0 0.0 5.574800000000001" Properties=species:S:1:pos:R:3:forces:R:3 config_type=bulk energy=-43.05990221690028 virial="-4.738718431136033 0.23048022558893247 -0.6058052539120855 0.23048022558893247 -4.835014515578596 0.2620175915548067 -0.6058052539120855 0.2620175915548067 -4.791269891778169" label_model=mpa-0 structure_key=20014142b7926759349c77dfb27a4ae43ff340796cc9e4a2874ef6694baf1878 pbc="T T T"
Si       0.03843930      -0.03708340      -0.05502306      -0.15632522       0.30038080       0.49021547
Si       1.41286743       1.43934901       1.37905694      -0.16722922      -0.54733676       0.07354617
Si      -0.00716144       2.75725633       2.82058536      -0.11188010       0.14197836      -0.37426380
Si       1.41199129       4.14115073       4.15551452      -0.05343571      -0.11416866       0.25807348
Si       2.75804000      -0.07101354       2.77682441       0.08499362       0.87164362       0.07522797
Si       4.18839213       1.37420443       4.19332704      -0.21466992      -0.17402493      -0.02623296
Si       2.82991784       2.82610547       0.04736972      -0.19850573      -0.37410662      -0.48434070
Si       4.14475786       4.20124365       1.40726689       0.81705228      -0.10436581      -0.01222563
8
Lattice="5.671333333333333 0.0 0.0 0.0 5.671333333333333 0.0 0.0 0.0 5.671333333333333" Properties=species:S:1:pos:R:3:forces:R:3 config_type=bulk energy=-42.64215133817123 virial="-8.863662967098847 -0.5643095102796571 -0.5180519289673673 -0.5643095102796571 -8.949983046061195 -0.19662913004072555 -0.5180519289673673 -0.19662913004072555 -8.885099168728026" label_model=mpa-0 structure_key=d64501088114a35478f24accca11ed231e7616e7b97bd88bcc7bcbeb7324c629 pbc="T T T"
Si       0.01470837      -0.00368871      -0.01780582      -0.13612875       0.11423179       0.00275859
Si       1.47736908       1.42348672       1.34524855      -0.53225943      -0.30738235       0.51735172
Si      -0.06472986       2.83299440       2.75366545       0.76722565      -0.10822307       0.50495260
Si       1.41241033       4.24371832       4.26636833      -0.13894050      -0.08442928      -0.57817190
Si       2.84645124      -0.01811484       2.81511128       0.03368233       0.11432729       0.12694467
Si       4.22613968       1.49419535       4.28201482       0.47616999      -0.99119479      -0.76879816
Si       2.85207664       2.78915852      -0.04287561      -0.34364056       0.66202865       0.20390249
Si       4.25103434       4.19202296       1.36893078      -0.12610872       0.60064176      -0.00894000
8
Lattice="5.7678666666666665 0.0 0.0 0.0 5.7678666666666665 0.0 0.0 0.0 5.7678666666666665" Properties=species:S:1:pos:R:3:forces:R:3 config_type=bulk energy=-42.1009093001715 virial="-12.8063590231619 -0.17249162385500805 0.7317928154681899 -0.17249162385500805 -12.689331391951644 -1.098796273073059 0.7317928154681899 -1.098796273073059 -12.706241277845502" label_model=mpa-0 structure_key=203e662dedb7cdb911fa2840e3835f3d32d2518babddcf003f9a8014e0f22afe pbc="T T T"
Si      -0.00139495       0.01064035       0.00919614       0.41474225      -0.21483954      -0.11414891
Si       1.48191957       1.41573465       1.48648409      -0.48951691       0.50593005      -0.59834131
Si      -0.00924899       2.92957393       2.81772159       0.54217699      -0.50010134       0.59258787
Si       1.47707642       4.35037893       4.28290769      -0.38065660      -0.14971824       0.40401263
Si       2.82917608       0.02173128       2.86489161       1.00283128      -0.33914768       0.22492666
Si       4.39468439       1.42530209       4.29828939      -0.59948410       0.32315385       0.06642639
Si       2.91294464       2.88958682       0.02544203       0.09800882      -0.27599874      -0.40022509
Si       4.36697460       4.28672005       1.43806470      -0.58810174       0.65072164      -0.17523825
8
Lattice="5.8644 0.0 0.0 0.0 5.8644 0.0 0.0 0.0 5.8644" Properties=species:S:1:pos:R:3:forces:R:3 config_type=bulk energy=-41.38551862217682 virial="-15.852742420658657 0.6415430535356011 0.23003050959115456 0.6415430535356011 -15.583002323478917 0.9537817259677461 0.23003050959115456 0.9537817259677461 -15.756268971827524" label_model=mpa-0 structure_key=9397b54416b77728bbac1a20880e66fc4a194a6d9ea7e49cdef713db5b6f4188 pbc="T T T"
Si       0.01257915      -0.01340087       0.02412785      -0.20356248      -0.06225821      -0.65298857
Si       1.46576262       1.41882197       1.49089035       0.47931951      -0.04941050      -0.07003747
Si       0.03995179       2.89098336       2.87668044      -0.52729456      -0.01914878       0.13484126
Si       1.46420484       4.32800743       4.36655977       0.24028756       0.35055073       0.31228602
Si       3.02930880      -0.05187559       2.95636608      -0.93340786      -0.27843181      -0.51870316
Si       4.31973622       1.43234419       4.32507511       1.01662091       0.28163261       0.70225166
Si       2.94397588       2.91075134       0.01115068      -0.38248208      -0.24956734      -0.34213763
Si       4.41275350       4.36534871       1.39831056       0.31051901       0.02663330       0.43448789
8
Lattice="4.9956 0.0 0.0 0.0 4.9956 0.0 0.0 0.0 4.9956" Properties=species:S:1:pos:R:3:forces:R:3 config_type=bulk energy=-38.1134381949622 virial="34.5129138670588 2.184639536819864 -2.7642596532894164 2.184639536819864 33.70444221052308 -3.6567883938901877 -2.7642596532894164 -3.6567883938901877 35.44585001919123" label_model=mpa-0 structure_key=9a4ebef4c99e707640170bf2eb09d8b6cbd30d31f93415ba2a8fd3ed974e7e8f pbc="T T T"
Si      -0.02590311      -0.08357244       0.01869424      -0.41477933       1.16254989       0.62048369
Si       1.24810591       1.33588246       1.26678916      -0.37714855      -0.87975349      -2.20130797
Si      -0.04979376       2.40203049       2.53460627       3.53222768       1.36641882       0.27852456
Si       1.22984417       3.74226020       3.71018215       0.23420332      -1.61480214       1.14205675
Si       2.37780762       0.05449444       2.52677880       2.04050454      -0.94411854      -1.03498304
Si       3.76001271       1.28874175       3.67195159      -1.43487979      -3.64642872       2.58223737
Si       2.61593274       2.47868106       0.02158607      -1.99756853       0.41513232      -1.25434228
Si       3.79147026       3.58320846       1.34942273      -1.58255935       4.14100187      -0.13266908
8
Lattice="5.092133333333333 0.0 0.0 0.0 5.092133333333333 0.0 0.0 0.0 5.092133333333333" Properties=species:S:1:pos:R:3:forces:R:3 config_type=bulk energy=-40.15941702049745 virial="25.434402346091826 1.85843436982213 0.5145279908922074 1.85843436982213 26.566271947787662 5.50974650059918 0.5145279908922074 5.50974650059918 25.713757023039623" label_model=mpa-0 structure_key=4621cd0b065c0ed3c163d2a13f7bae46294e2064442ce4fcb6961fbb4bf2c6bb pbc="T T T"
Si       0.02455441       0.01837879      -0.05912884      -1.60524582       1.44436259       2.79333148
Si       1.27816345       1.24529339       1.30832559      -0.20618870       0.90886322      -0.65993026
Si       0.05019195       2.52961064       2.66215143      -1.31709441      -0.20681182      -2.61266462
Si       1.12639888       3.90516443       3.81757326       3.58767835      -1.17054659      -0.50482573
Si       2.54162388       0.01980344       2.57298758      -0.09254563      -1.27335197      -0.27162726
Si       3.81965098       1.24181126       3.79457990      -0.70640575       0.93738350       0.90518457
Si       2.53939700       2.59157091      -0.00384830      -1.16965837      -0.70336436      -1.07874740
Si       3.78126558       3.83371570       1.22202063       1.50946034       0.06346542       1.42927922
8
Lattice="5.188666666666666 0.0 0.0 0.0 5.188666666666666 0.0 0.0 0.0 5.188666666666666" Properties=species:S:1:pos:R:3:forces:R:3 config_type=bulk energy=-39.70035225284092 virial="21.650413528837067 3.3467644673243786 4.290759332414081 3.3467644673243786 21.129100508269786 -8.547823678574206 4.290759332414081 -8.547823678574206 19.84086085414459" label_model=mpa-0 structure_key=7957a57be62db5155be67e5b220f82fdac852c7a9ec5d0f3422fab1a3dc927ee pbc="T T T"
Si      -0.06838752       0.05235048      -0.10120570       5.42274099      -3.53472672       3.61923581
Si       1.35677507       1.43073222       1.23293745      -2.37880048      -4.00910835       2.85821615
Si       0.00185733       2.67099743       2.55944542      -2.11187641      -2.70949544      -0.58396502
Si       1.26471723       3.82498162       3.75287914      -0.17996127       0.83206821       2.90562175
Si       2.54109723      -0.04170007       2.71602653       1.89377619       1.62440304      -2.68325360
Si       3.95587250       1.18395841       4.03553735      -4.52508656       5.35912776      -4.22947456
Si       2.45687808       2.64186533       0.04994100       2.96480873       1.41524223      -3.12255960
Si       3.93141671       3.86518060       1.17655504      -1.08560120       1.02248926       1.23617907
8
Lattice="5.2852 0.0 0.0 0.0 5.2852 0.0 0.0 0.0 5.2852" Properties=species:S:1:pos:R:3:forces:R:3 config_type=bulk energy=-42.03852143288224 virial="11.739919742858934 0.6264895224397324 0.3346488351627071 0.6264895224397324 12.06897127469274 -2.3107654817725645 0.3346488351627071 -2.3107654817725645 11.672637535588256" label_model=mpa-0 structure_key=00ccfa7c0c44a732252c1f3ebeeb6894e8ca0d3af6e9000a894d251eb4059159 pbc="T T T"
Si      -0.02497886      -0.03834127       0.01683618      -0.61279388       1.03940529       0.22292510
Si       1.37383023       1.44161138       1.20538184      -2.12396170      -2.47369500       2.28333369
Si      -0.00977150       2.71182695       2.58577671       0.50488542      -0.42403553       0.93245397
Si       1.36588267       3.99162199       4.07880773      -1.44371185       1.04933413      -2.62341734
Si       2.63464639       0.04098590       2.64041661      -0.81838271      -0.49345581      -0.80508009
Si       3.89673859       1.32881979       3.91778733       1.16452719       0.69229594       0.74803701
Si       2.53067444       2.68438820      -0.01141620       2.90034018      -0.49720383      -1.21459734
Si       3.86819055       3.89642414       1.28513501       0.42909734       1.10735481       0.45634500
8
Lattice="5.381733333333333 0.0 0.0 0.0 5.381733333333333 0.0 0.0 0.0 5.381733333333333" Properties=species:S:1:pos:R:3:forces:R:3 config_type=bulk energy=-42.71180390113453 virial="5.558187359451653 0.3487041762430566 1.3048363109259196 0.3487041762430566 5.750342641238101 0.47201906895923756 1.3048363109259196 0.47201906895923756 5.820872075448586" label_model=mpa-0 structure_key=3c57f8192a7fee83f4121fcec2f93a1bad9c63f0237c9624aafb78256daf5430 pbc="T T T"
Si       0.08421361      -0.06740832       0.01087221      -0.67252319       0.74309675      -0.03353973
Si       1.36773443       1.36532052       1.38242472      -0.22475001      -0.30011760      -0.24321934
Si      -0.04317252       2.71444507       2.60251142       0.50779147      -0.69256656       1.92030069
Si       1.44330672       4.07831302       4.02365794      -1.12367722      -1.09766786      -0.25984947
Si       2.71020078       0.05149562       2.76344395      -0.30348450      -0.97787026      -1.97985170
Si       3.92748213       1.27624150       4.06207955       2.35530921       1.40237992       0.95776913
Si       2.68456104       2.71074128       0.03183295      -0.02633975      -0.31663126      -0.24381508
Si       4.05009428       4.00154843       1.33545603      -0.51232600       1.23937688      -0.11779450
8
Lattice="5.478266666666666 0.0 0.0 0.0 5.478266666666666 0.0 0.0 0.0 5.478266666666666" Properties=species:S:1:pos:R:3:forces:R:3 config_type=bulk energy=-43.094720991383 virial="-0.5159478030160498 -0.43042577591842895 -0.6322097013492554 -0.43042577591842895 -0.25800061477398034 -0.32374949620585725 -0.6322097013492554 -0.32374949620585725 -0.13552215863030834" label_model=mpa-0 structure_key=a03441332bc8da395dd084caed67273681ba7d763472c2ff4d8840d215fc33a1 pbc="T T T"
Si       0.09106267      -0.06179301       0.02414986      -0.84730587      -0.01691739       0.01044267
Si       1.28928377       1.32484891       1.41235239       0.39551132       0.56703116       0.24723860
Si      -0.10751269       2.71646343       2.80495410       0.98261279       0.78264914      -0.62670081
Si       1.41640474       4.07400452       4.14852018      -0.16098839       0.00793193      -0.73805791
Si       2.76184150       0.08130294       2.78003191      -0.16469537      -0.41855086       0.15035683
Si       4.16991142       1.39710119       4.17405143      -0.41847373      -0.90056228       0.40647602
Si       2.69569413       2.66012637      -0.01349606       0.27256749       0.37322791       0.88803678
Si       4.06848392       4.14553465       1.40780848      -0.05922823      -0.39480962      -0.33779219
8
Lattice="5.574800000000001 0.0 0.0 0.0 5.574800000000001 0.0 0.0 0.0 5.574800000000001" Properties=species:S:1:pos:R:3:forces:R:3 config_type=bulk energy=-42.9091286090133 virial="-4.5248976917159975 0.43045221023616226 -1.000987517523236 0.43045221023616226 -4.737095423125094 0.48904022311232553 -1.000987517523236 0.48904022311232553 -4.643828013146315" label_model=mpa-0 structure_key=f5fb5bc6f60d585bd247f37cbd0055656ac1176953239f418e30d0b5dc8184d3 pbc="T T T"
Si       0.05765895      -0.05562510      -0.08253458      -0.24955595       0.46738204       0.76145603
Si       1.42245115       1.46217352       1.37173541      -0.25965816      -0.84848868       0.12137424
Si      -0.01074216       2.74218449       2.83717803      -0.17161093       0.22593611      -0.58583454
Si       1.42113694       4.12117610       4.14272178      -0.08218889      -0.21616677       0.42131590
Si       2.74335999      -0.10652031       2.77153662       0.09875918       1.39752917       0.12726347
Si       4.19203820       1.36445664       4.19944055      -0.34294217      -0.27100039      -0.02917156
Si       2.85117676       2.84545821       0.07105458      -0.34096508      -0.61232732      -0.79954236
Si       4.12658678       4.21131547       1.41405033       1.34816200      -0.14286415      -0.01686117
8
Lattice="5.671333333333333 0.0 0.0 0.0 5.671333333333333 0.0 0.0 0.0 5.671333333333333" Properties=species:S:1:pos:R:3:forces:R:3 config_type=bulk energy=-42.39955667086147 virial="-8.547175605743789 -1.1218573273234083 -1.0061078651174464 -1.1218573273234083 -8.793404645626687 -0.23990395873154552 -1.0061078651174464 -0.23990395873154552 -8.59621471146443" label_model=mpa-0 structure_key=ed33a7121ab941e743e8f3f1d2ffd1bb601c06a58cdf8ff9d6e21866ceff0eaf pbc="T T T"
Si       0.02206255      -0.00553306      -0.02670873      -0.23331032       0.19118235       0.01129125
Si       1.50713695       1.42631341       1.30895616      -0.84813477      -0.50783860       0.83795989
Si      -0.09709479       2.83165827       2.71266484       1.22135225      -0.25062167       0.84201090
Si       1.40969883       4.23882748       4.27280249      -0.19841630      -0.14145362      -0.88469672
Si       2.85184353      -0.02717227       2.80483359       0.05709733       0.18502489       0.19345363
Si       4.21245952       1.53237636       4.29627223       0.93250622      -1.65871406      -1.34479389
Si       2.86028163       2.76590444      -0.06431342      -0.67627503       1.19523952       0.42657075
Si       4.24980151       4.16128444       1.34447950      -0.25481939       0.98718118      -0.08179581
8
Lattice="5.7678666666666665 0.0 0.0 0.0 5.7678666666666665 0.0 0.0 0.0 5.7678666666666665" Properties=species:S:1:pos:R:3:forces:R:3 config_type=bulk energy=-41.88157515188703 virial="-12.76583056357519 -0.4420872907916529 1.324390001410727 -0.4420872907916529 -12.499669845556781 -1.938911574898452 1.324390001410727 -1.938911574898452 -12.54376922282144" label_model=mpa-0 structure_key=5781449bac401f426db39f3b3def14e5cc122ef61feb2236a045b4a6059728f0 pbc="T T T"
Si      -0.00209242       0.01596053       0.01379422       0.63267745      -0.32780814      -0.15390759
Si       1.50189602       1.40261864       1.50874281      -0.83008716       0.86482101      -0.99413563
Si      -0.01387349       2.95239423       2.78461572       0.91074599      -0.83578614       0.97864837
Si       1.49463130       4.36261840       4.26141153      -0.60158568      -0.25932150       0.63094487
Si       2.80179745       0.03259693       2.85537075       1.60711428      -0.56694492       0.41963714
Si       4.42907658       1.41696980       4.28448408      -0.90500584       0.48987395       0.07333048
Si       2.92745029       2.89241356       0.03816304       0.13288912      -0.42480871      -0.60580479
Si       4.38751191       4.26713007       1.43611371      -0.94674816       1.05997443      -0.34871286
8
Lattice="5.8644 0.0 0.0 0.0 5.8644 0.0 0.0 0.0 5.8644" Properties=species:S:1:pos:R:3:forces:R:3 config_type=bulk energy=-41.171421177592876 virial="-15.873726750574939 1.0620956631527674 0.4181393351776284 1.0620956631527674 -15.225118886928202 1.5820765144840718 0.4181393351776284 1.5820765144840718 -15.651719829555844" label_model=mpa-0 structure_key=0c1b72402858b14da625d7bd3f182beabbd2099c7866bcc41479cde3c7fea28c pbc="T T T"
Si       0.01886872      -0.02010131       0.03619177      -0.28346026      -0.09615390      -0.96326854
Si       1.46559394       1.39518296       1.50328552       0.72646989      -0.09315153      -0.12115864
Si       0.05992768       2.87037505       2.84892066      -0.79794793      -0.00870862       0.21508697
Si       1.46325725       4.29286114       4.35068965       0.36077431       0.53170134       0.45939113
Si       3.07786320      -0.07781338       2.96844912      -1.44738344      -0.56324877      -0.85669295
Si       4.28045434       1.41546628       4.28846267       1.55852799       0.57622608       1.11959896
Si       2.94986381       2.90002700       0.01672602      -0.57281314      -0.39348646      -0.51146966
Si       4.41998025       4.34887307       1.36441585       0.45583259       0.04682185       0.65851273
8
Lattice="4.9956 0.0 0.0 0.0 4.9956 0.0 0.0 0.0 4.9956" Properties=species:S:1:pos:R:3:forces:R:3 config_type=bulk energy=-37.23045525518197 virial="35.63967360279034 2.884080017455971 -3.8354218625203007 2.884080017455971 34.202652334344805 -5.32875375202576 -3.8354218625203007 -5.32875375202576 37.22155126467737" label_model=mpa-0 structure_key=0741fa0757980292cb437fcd3c6531d6d959c23dc17ea2850230aa83aa8fea64 pbc="T T T"
Si      -0.03453748      -0.11142992       0.02492565      -0.50473520       1.45739385       0.78636301
Si       1.24784121       1.36487662       1.27275222      -0.37697070      -1.06234980      -2.88953969
Si      -0.06639168       2.37010732       2.54687502       5.36660332       1.92884144       0.22573127
Si       1.22349223       3.74078027       3.69800953       0.23599033      -2.08534563       1.42897641
Si       2.33781016       0.07265926       2.53643839       2.56323646      -1.08564651      -1.15012574
Si       3.76445028       1.30202233       3.64703546      -2.49187486      -5.18008031       3.75360492
Si       2.65531033       2.47230809       0.02878143      -2.61541524       0.44676452      -1.61440153
Si       3.80639368       3.52871127       1.38293031      -2.17683410       5.58042245      -0.54060866
8
Lattice="5.092133333333333 0.0 0.0 0.0 5.092133333333333 0.0 0.0 0.0 5.092133333333333" Properties=species:S:1:pos:R:3:forces:R:3 config_type=bulk energy=-39.592574356643055 virial="25.708897159858747 2.1210856918579353 0.6267779946790822 2.1210856918579353 27.77237948590577 7.557560557231337 0.6267779946790822 7.557560557231337 26.27402858099911" label_model=mpa-0 structure_key=1f4f266f72f73792a9fd2aef82354ce6487222416d818129fbf31a8db2640ecb pbc="T T T"
Si       0.03273921       0.02450505      -0.07883845      -2.29380254       2.22916700       4.04393721
Si       1.27987349       1.23604674       1.32008968      -0.31608820       1.21004610      -0.87510675
Si       0.06692261       2.52412529       2.70084635      -1.60045667      -0.52814878      -3.36142912
Si       1.07752073       3.93385257       3.81706435       4.90301627      -1.70107892      -1.06451656
Si       2.54014295       0.02640459       2.58196121      -0.14467361      -1.72326126      -0.36467553
Si       3.81983464       1.23140390       3.78640653      -0.92232968       1.26840922       1.17389565
Si       2.53717377       2.60673899      -0.00513106      -1.53647111      -0.99551457      -1.39452942
Si       3.76865411       3.83858760       1.20501640       1.91080555       0.24038121       1.84242451
8
Lattice="5.188666666666666 0.0 0.0 0.0 5.188666666666666 0.0 0.0 0.0 5.188666666666666" Properties=species:S:1:pos:R:3:forces:R:3 config_type=bulk energy=-37.590857006420826 virial="25.27768747343468 3.7501745287300503 6.250776493384047 3.7501745287300503 24.518536672380762 -12.435008061607343 6.250776493384047 -12.435008061607343 21.80781290074221" label_model=mpa-0 structure_key=7536cceef98992590023b2687a9397db18a25ba3678f28d35441eaf0261f9b0c pbc="T T T"
Si      -0.09118336       0.06980064      -0.13494094       8.47050465      -6.04372148       5.82672447
Si       1.37664454       1.47525407       1.21152771      -3.56013332      -5.77656309       4.37827321
Si       0.00247644       2.69655213       2.54781611      -2.96836010      -3.63672846      -1.08314400
Si       1.25390075       3.80280883       3.70667218       0.06211445       1.02563770       4.04509797
Si       2.52335187      -0.05560009       2.75659093       2.60339836       2.37914653      -3.40665706
Si       3.97733000       1.14622232       4.08354980      -7.51473115       8.29666443      -6.71934269
Si       2.41105966       2.65770932       0.06658800       4.21835872       2.65354489      -4.53911145
Si       3.94472229       3.85640747       1.13635117      -1.31115160       1.10201947       1.49815956
8
Lattice="5.2852 0.0 0.0 0.0 5.2852 0.0 0.0 0.0 5.2852" Properties=species:S:1:pos:R:3:forces:R:3 config_type=bulk energy=-41.35052473751279 virial="12.675312264251957 0.9357923295947398 0.43864054954743315 0.9357923295947398 13.434755259467078 -3.5665530577404745 0.43864054954743315 -3.5665530577404745 12.630016143693284" label_model=mpa-0 structure_key=c2975e3e04ebf8becb4c942b56cd494c524a58026dbc2a1ed8cfa44d65036eba pbc="T T T"
Si      -0.03330514      -0.05112169       0.02244824      -0.82787949       1.38112293       0.29591286
Si       1.39134030       1.48171517       1.16674245      -3.14171311      -3.68772789       3.40855698
Si      -0.01302867       2.73490260       2.56683561       0.66070803      -0.57770083       1.20675575
Si       1.38074356       4.00086266       4.11711031      -2.02440916       1.71465682      -3.68320942
Si       2.63199518       0.05464787       2.63968882      -1.12763311      -0.75317327      -1.13494177
Si       3.87435146       1.33132639       3.90241644       1.59403309       0.99574480       1.05915856
Si       2.49336592       2.69831760      -0.01522160       4.26522133      -0.55963595      -1.78947140
Si       3.83628740       3.87393219       1.27308001       0.60167242       1.48671338       0.63723845
8
Lattice="5.381733333333333 0.0 0.0 0.0 5.381733333333333 0.0 0.0 0.0 5.381733333333333" Properties=species:S:1:pos:R:3:forces:R:3 config_type=bulk energy=-42.27945179305962 virial="6.270390688590689 0.6510749998379298 2.0375376140456813 0.6510749998379298 6.607689082747428 0.7070466783590309 2.0375376140456813 0.7070466783590309 6.770092053885976" label_model=mpa-0 structure_key=99501b671f761e26bea199f5900a2e108a54eef402fa50fb2ec7ece4a4fa9ffb pbc="T T T"
Si       0.11228482      -0.08987775       0.01449629      -0.92365444       0.99186891       0.00036910
Si       1.37516814       1.37194958       1.39475518      -0.29684066      -0.42434025      -0.31856250
Si      -0.05756336       2.72230454       2.57305967       0.80807113      -1.02818771       2.60499461
Si       1.47593119       4.09231736       4.01944392      -1.51070951      -1.51445357      -0.30171995
Si       2.71664548       0.06866083       2.78763638      -0.58204182      -1.42753050      -2.94537107
Si       3.89120951       1.25317756       4.07067274       3.29806096       2.06908630       1.57708079
Si       2.68245917       2.71736615       0.04244393      -0.03668709      -0.43479463      -0.35525357
Si       4.05469238       3.98996458       1.33213026      -0.75619858       1.76835145      -0.26153740
8
Lattice="5.478266666666666 0.0 0.0 0.0 5.478266666666666 0.0 0.0 0.0 5.478266666666666" Properties=species:S:1:pos:R:3:forces:R:3 config_type=bulk energy=-42.91293973528754 virial="-0.5466487996576286 -0.5631296480500387 -0.9637587069979786 -0.5631296480500387 -0.02610210870107531 -0.5432101307245937 -0.9637587069979786 -0.5432101307245937 0.19166846926432418" label_model=mpa-0 structure_key=912355be0b0759f9615330d9034fa764e040923d5a72c068225df4313ba8f1bd pbc="T T T"
Si       0.12141690      -0.08239068       0.03219981      -1.17929888      -0.03764331       0.00846594
Si       1.26252281       1.30994299       1.42661430       0.54163400       0.79265934       0.37442780
Si      -0.14335025       2.70890680       2.82689435       1.39553906       1.16893470      -0.97088162
Si       1.43201743       4.06243936       4.16179357      -0.21940716       0.01673373      -1.04150984
Si       2.76941089       0.10840393       2.79366476      -0.22101917      -0.54710584       0.20343450
Si       4.19031522       1.40627936       4.19583524      -0.61475869      -1.32746114       0.67804245
Si       2.68121440       2.63379071      -0.01799475       0.35552552       0.46262158       1.20788663
Si       4.05507856       4.15781287       1.42055575      -0.05821469      -0.52873907      -0.45986587
8
Lattice="5.574800000000001 0.0 0.0 0.0 5.574800000000001 0.0 0.0 0.0 5.574800000000001" Properties=species:S:1:pos:R:3:forces:R:3 config_type=bulk energy=-42.68488817718499 virial="-4.185603911392036 0.7110513200527226 -1.4730128949756538 0.7110513200527226 -4.55226325261255 0.7953937221157155 -1.4730128949756538 0.7953937221157155 -4.395431135119347" label_model=mpa-0 structure_key=8ac600df727905bf02c6a6306b7ec060847d6fc6c55fe3afb2560a7b8fa0ed93 pbc="T T T"
Si       0.07687859      -0.07416680      -0.11004611      -0.35186957       0.64718536       1.04880684
Si       1.43203486       1.48499802       1.36441388      -0.36082370      -1.16603942       0.17756282
Si      -0.01432288       2.72711265       2.85377071      -0.23025873       0.31877956      -0.81623133
Si       1.43028258       4.10120146       4.12992903      -0.11230352      -0.35829404       0.61476284
Si       2.72867999      -0.14202708       2.76624882       0.08614869       1.99070890       0.19063361
Si       4.19568427       1.35470886       4.20555407      -0.48836702      -0.37455070      -0.02071903
Si       2.87243568       2.86481095       0.09473944      -0.52214167      -0.89831252      -1.18111497
Si       4.10841571       4.22138730       1.42083377       1.97961553      -0.15947713      -0.01370077
8
Lattice="5.671333333333333 0.0 0.0 0.0 5.671333333333333 0.0 0.0 0.0 5.671333333333333" Properties=species:S:1:pos:R:3:forces:R:3 config_type=bulk energy=-42.02035527920326 virial="-7.897733031127846 -1.898046616408519 -1.6591680138002907 -1.898046616408519 -8.444977543923287 -0.20893691870767267 -1.6591680138002907 -0.20893691870767267 -7.9890841144530995" label_model=mpa-0 structure_key=ae03bb48e6fe285a2b1a3407af9ebd64d57377763e7513da0f6c5e9b5a05e848 pbc="T T T"
Si       0.02941673      -0.00737742      -0.03561164      -0.34685315       0.27831285       0.02830067
Si       1.53690482       1.42914010       1.27266377      -1.19900673      -0.75075763       1.20404498
Si      -0.12945972       2.83032214       2.67166424       1.71817873      -0.48208535       1.25304284
Si       1.40698733       4.23393664       4.27923665      -0.23794005      -0.20236180      -1.18527119
Si       2.85723582      -0.03622969       2.79455590       0.07845273       0.25636075       0.24908547
Si       4.19877936       1.57055737       4.31052964       1.59903954      -2.44922412      -2.09094512
Si       2.86848662       2.74265036      -0.08575123      -1.16305907       1.90380646       0.76681786
Si       4.24856868       4.13054592       1.32002822      -0.44881201       1.44594884      -0.22507551
8
Lattice="5.7678666666666665 0.0 0.0 0.0 5.7678666666666665 0.0 0.0 0.0 5.7678666666666665" Properties=species:S:1:pos:R:3:forces:R:3 config_type=bulk energy=-41.5490900472503 virial="-12.48868573359556 -0.9368978676806253 2.1308524494405088 -0.9368978676806253 -12.012770220501116 -3.0442400174229443 2.1308524494405088 -3.0442400174229443 -12.104824715437234" label_model=mpa-0 structure_key=f2f49425ad16da103daef258bb72f4aca09eeaedfdffe0403cc6f0ad50fa926a pbc="T T T"
Si      -0.00278990       0.02128071       0.01839229       0.85319803      -0.44245586      -0.17589521
Si       1.52187247       1.38950263       1.53100152      -1.26749384       1.33509694      -1.48957138
Si      -0.01849799       2.97521453       2.75150985       1.38242000      -1.26012253       1.45698889
Si       1.51218617       4.37485787       4.23991538      -0.84578388      -0.40127473       0.87699231
Si       2.77441883       0.04346257       2.84584989       2.29522178      -0.85579024       0.70537631
Si       4.46346877       1.40863751       4.27067878      -1.20151753       0.65731387       0.05929698
Si       2.94195595       2.89524030       0.05088405       0.15120820      -0.57779722      -0.80832431
Si       4.40804921       4.24754010       1.43416273      -1.36725277       1.54502979      -0.62486358
8
Lattice="5.8644 0.0 0.0 0.0 5.8644 0.0 0.0 0.0 5.8644" Properties=species:S:1:pos:R:3:forces:R:3 config_type=bulk energy=-40.864183790601125 virial="-15.774225640971208 1.557180969469186 0.6888458551111499 1.557180969469186 -14.52319724646496 2.345890117960216 0.6888458551111499 2.345890117960216 -15.367700074689123" label_model=mpa-0 structure_key=0e0318022e5c258c6affd2a212ebc548c82ccba281df3ed523260f33baa1a6fa pbc="T T T"
Si       0.02515829      -0.02680174       0.04825569      -0.33446248      -0.13482173      -1.24332046
Si       1.46542525       1.37154394       1.51568070       0.97433494      -0.15216393      -0.19142405
Si       0.07990358       2.84976673       2.82116088      -1.06950944       0.02593516       0.30520680
Si       1.46230967       4.25771485       4.33481953       0.47809102       0.71019394       0.59579651
Si       3.12641760      -0.10375118       2.98053216      -1.99427572      -1.00772748      -1.27300703
Si       4.24117245       1.39858838       4.25185022       2.11469449       1.03598136       1.59695850
Si       2.95575175       2.88930267       0.02230136      -0.76060708      -0.55038077      -0.67656769
Si       4.42720700       4.33239742       1.33052113       0.59173427       0.07298346       0.88635742
8
Lattice="4.887 0.0 0.0 0.0 4.887 0.0 0.0 0.0 4.887" Properties=species:S:1:pos:R:3:forces:R:3 config_type=bulk energy=-36.696653885192106 virial="43.497942074228405 2.7104389432907255e-14 -2.6087786947808225e-15 2.7104389432907255e-14 43.497942074228355 8.516501192906143e-14 -2.6087786947808225e-15 8.516501192906143e-14 43.497942074228355" label_model=mpa-0 structure_key=e1f47663f50bcd0f16340556f52fda964248507e980ea5a846336761288a06a5 pbc="T T T"
Si       0.00000000       0.00000000       0.00000000       0.00000000       0.00000000      -0.00000000
Si       1.22175000       1.22175000       1.22175000      -0.00000000      -0.00000000      -0.00000000
Si       0.00000000       2.44350000       2.44350000      -0.00000000      -0.00000000       0.00000000
Si       1.22175000       3.66525000       3.66525000      -0.00000000       0.00000000      -0.00000000
Si       2.44350000       0.00000000       2.44350000      -0.00000000      -0.00000000      -0.00000000
Si       3.66525000       1.22175000       3.66525000       0.00000000       0.00000000       0.00000000
Si       2.44350000       2.44350000       0.00000000      -0.00000000      -0.00000000      -0.00000000
Si       3.66525000       3.66525000       1.22175000       0.00000000       0.00000000       0.00000000
8
Lattice="5.007666666666666 0.0 0.0 0.0 5.007666666666666 0.0 0.0 0.0 5.007666666666666" Properties=species:S:1:pos:R:3:forces:R:3 config_type=bulk energy=-39.4495870346088 virial="32.099960079630215 -1.4374936373372196e-14 -1.4312358453724538e-14 -1.4374936373372196e-14 32.099960079630215 -1.1833512958926823e-14 -1.4312358453724538e-14 -1.1833512958926823e-14 32.099960079630215" label_model=mpa-0 structure_key=0d76a18e32129b2b6ec2d5c6404eb1b82c72459f8712d5651ab272ebeea1a698 pbc="T T T"
Si       0.00000000       0.00000000       0.00000000       0.00000000       0.00000000       0.00000000
Si       1.25191667       1.25191667       1.25191667       0.00000000       0.00000000      -0.00000000
Si       0.00000000       2.50383333       2.50383333       0.00000000       0.00000000       0.00000000
Si       1.25191667       3.75575000       3.75575000       0.00000000      -0.00000000      -0.00000000
Si       2.50383333       0.00000000       2.50383333       0.00000000       0.00000000       0.00000000
Si       3.75575000       1.25191667       3.75575000      -0.00000000       0.00000000      -0.00000000
Si       2.50383333       2.50383333       0.00000000      -0.00000000      -0.00000000       0.00000000
Si       3.75575000       3.75575000       1.25191667      -0.00000000      -0.00000000       0.00000000
8
Lattice="5.128333333333334 0.0 0.0 0.0 5.128333333333334 0.0 0.0 0.0 5.128333333333334" Properties=species:S:1:pos:R:3:forces:R:3 config_type=bulk energy=-41.38471661360209 virial="22.098348395101834 -6.333764980584622e-16 5.980937175230111e-16 -6.333764980584622e-16 22.09834839510174 -2.4537390369999457e-16 5.980937175230111e-16 -2.4537390369999457e-16 22.098348395101773" label_model=mpa-0 structure_key=d0c7f318ff5f30f10b16ebdf30f8df8cb85e1dd1cffe1c440a954b0304aeaa35 pbc="T T T"
Si       0.00000000       0.00000000       0.00000000      -0.00000000       0.00000000      -0.00000000
Si       1.28208333       1.28208333       1.28208333       0.00000000      -0.00000000       0.00000000
Si       0.00000000       2.56416667       2.56416667       0.00000000       0.00000000       0.00000000
Si       1.28208333       3.84625000       3.84625000       0.00000000      -0.00000000      -0.00000000
Si       2.56416667       0.00000000       2.56416667      -0.00000000      -0.00000000       0.00000000
Si       3.84625000       1.28208333       3.84625000      -0.00000000       0.00000000       0.00000000
Si       2.56416667       2.56416667       0.00000000      -0.00000000      -0.00000000      -0.00000000
Si       3.84625000       3.84625000       1.28208333       0.00000000       0.00000000       0.00000000
8
Lattice="5.249 0.0 0.0 0.0 5.249 0.0 0.0 0.0 5.249" Properties=species:S:1:pos:R:3:forces:R:3 config_type=bulk energy=-42.590476656272266 virial="12.647653631428698 -9.12044573118153e-16 -1.0447145918033176e-14 -9.12044573118153e-16 12.647653631428714 -1.4895332909127568e-15 -1.0447145918033176e-14 -1.4895332909127568e-15 12.647653631428708" label_model=mpa-0 structure_key=2272ae09195bc175c774b2b16e38bfd73ef4b0b4cb7de359f574c695bdf4f68f pbc="T T T"
Si       0.00000000       0.00000000       0.00000000       0.00000000       0.00000000      -0.00000000
Si       1.31225000       1.31225000       1.31225000       0.00000000      -0.00000000       0.00000000
Si       0.00000000       2.62450000       2.62450000       0.00000000       0.00000000       0.00000000
Si       1.31225000       3.93675000       3.93675000      -0.00000000      -0.00000000      -0.00000000
Si       2.62450000       0.00000000       2.62450000      -0.00000000       0.00000000       0.00000000
Si       3.93675000       1.31225000       3.93675000       0.00000000      -0.00000000      -0.00000000
Si       2.62450000       2.62450000       0.00000000       0.00000000       0.00000000       0.00000000
Si       3.93675000       3.93675000       1.31225000      -0.00000000      -0.00000000      -0.00000000
8
Lattice="5.369666666666666 0.0 0.0 0.0 5.369666666666666 0.0 0.0 0.0 5.369666666666666" Properties=species:S:1:pos:R:3:forces:R:3 config_type=bulk energy=-43.18406540821843 virial="5.0541498118764965 -3.442153763156069e-14 -3.3491556364612446e-14 -3.442153763156069e-14 5.054149811876491 -3.13187150314877e-14 -3.3491556364612446e-14 -3.13187150314877e-14 5.054149811876492" label_model=mpa-0 structure_key=b923242bbe27234f4eb585c26c5ee19570595ce09b4702ba9d5ce3956a14990f pbc="T T T"
Si       0.00000000       0.00000000       0.00000000       0.00000000      -0.00000000       0.00000000
Si       1.34241667       1.34241667       1.34241667       0.00000000       0.00000000       0.00000000
Si       0.00000000       2.68483333       2.68483333      -0.00000000       0.00000000      -0.00000000
Si       1.34241667       4.02725000       4.02725000       0.00000000      -0.00000000      -0.00000000
Si       2.68483333       0.00000000       2.68483333      -0.00000000      -0.00000000      -0.00000000
Si       4.02725000       1.34241667       4.02725000       0.00000000       0.00000000       0.00000000
Si       2.68483333       2.68483333       0.00000000      -0.00000000      -0.00000000      -0.00000000
Si       4.02725000       4.02725000       1.34241667       0.00000000      -0.00000000       0.00000000
8
Lattice="5.490333333333333 0.0 0.0 0.0 5.490333333333333 0.0 0.0 0.0 5.490333333333333" Properties=species:S:1:pos:R:3:forces:R:3 config_type=bulk energy=-43.311136895245 virial="-1.0900868645791673 2.4422749954187205e-14 1.7190693372082243e-14 2.4422749954187205e-14 -1.090086864579153 -1.6929859884996103e-15 1.7190693372082243e-14 -1.6929859884996103e-15 -1.0900868645791282" label_model=mpa-0 structure_key=3aad3d23ea0a8ba66a2fcd633f44e1adc8cdfaadf85db8252eeccb70799f81e2 pbc="T T T"
Si       0.00000000       0.00000000       0.00000000      -0.00000000       0.00000000      -0.00000000
Si       1.37258333       1.37258333       1.37258333      -0.00000000      -0.00000000      -0.00000000
Si       0.00000000       2.74516667       2.74516667       0.00000000       0.00000000       0.00000000
Si       1.37258333       4.11775000       4.11775000      -0.00000000      -0.00000000      -0.00000000
Si       2.74516667       0.00000000       2.74516667       0.00000000       0.00000000       0.00000000
Si       4.11775000       1.37258333       4.11775000      -0.00000000      -0.00000000      -0.00000000
Si       2.74516667       2.74516667       0.00000000       0.00000000       0.00000000      -0.00000000
Si       4.11775000       4.11775000       1.37258333      -0.00000000      -0.00000000       0.00000000
8
Lattice="5.611000000000001 0.0 0.0 0.0 5.611000000000001 0.0 0.0 0.0 5.611000000000001" Properties=species:S:1:pos:R:3:forces:R:3 config_type=bulk energy=-43.06338049338934 virial="-6.440454293858875 -1.6491924971096522e-16 6.383777661128175e-16 -1.6491924971096522e-16 -6.44045429385887 -5.321206824246254e-16 6.383777661128175e-16 -5.321206824246254e-16 -6.440454293858871" label_model=mpa-0 structure_key=a3f0a38de258fa1eb3088f7b33778cfb9c46d47f9c1e708e65ccd9e91bdbe747 pbc="T T T"
Si       0.00000000       0.00000000       0.00000000       0.00000000      -0.00000000       0.00000000
Si       1.40275000       1.40275000       1.40275000      -0.00000000      -0.00000000       0.00000000
Si       0.00000000       2.80550000       2.80550000       0.00000000       0.00000000       0.00000000
Si       1.40275000       4.20825000       4.20825000       0.00000000      -0.00000000      -0.00000000
Si       2.80550000       0.00000000       2.80550000      -0.00000000      -0.00000000      -0.00000000
Si       4.20825000       1.40275000       4.20825000      -0.00000000      -0.00000000      -0.00000000
Si       2.80550000       2.80550000       0.00000000      -0.00000000       0.00000000       0.00000000
Si       4.20825000       4.20825000       1.40275000      -0.00000000      -0.00000000       0.00000000
8
Lattice="5.7316666666666665 0.0 0.0 0.0 5.7316666666666665 0.0 0.0 0.0 5.7316666666666665" Properties=species:S:1:pos:R:3:forces:R:3 config_type=bulk energy=-42.49200268969991 virial="-11.388220395110059 -4.017469052709663e-15 -3.914320389216737e-15 -4.017469052709663e-15 -11.38822039511009 -3.2115740510335804e-15 -3.914320389216737e-15 -3.2115740510335804e-15 -11.388220395110078" label_model=mpa-0 structure_key=441f11db65e00a6aa6058d33eb5ece638f2c13ef97325b50040956bb7cde327d pbc="T T T"
Si       0.00000000       0.00000000       0.00000000       0.00000000       0.00000000       0.00000000
Si       1.43291667       1.43291667       1.43291667       0.00000000       0.00000000       0.00000000
Si       0.00000000       2.86583333       2.86583333       0.00000000       0.00000000       0.00000000
Si       1.43291667       4.29875000       4.29875000       0.00000000      -0.00000000      -0.00000000
Si       2.86583333       0.00000000       2.86583333      -0.00000000       0.00000000       0.00000000
Si       4.29875000       1.43291667       4.29875000      -0.00000000       0.00000000      -0.00000000
Si       2.86583333       2.86583333       0.00000000       0.00000000       0.00000000       0.00000000
Si       4.29875000       4.29875000       1.43291667      -0.00000000      -0.00000000       0.00000000
8
Lattice="5.852333333333334 0.0 0.0 0.0 5.852333333333334 0.0 0.0 0.0 5.852333333333334" Properties=species:S:1:pos:R:3:forces:R:3 config_type=bulk energy=-41.648930058226725 virial="-15.413575940461268 1.3665782432852768e-15 3.4946343107549893e-16 1.3665782432852768e-15 -15.413575940461254 4.1529430020438736e-16 3.4946343107549893e-16 4.1529430020438736e-16 -15.413575940461307" label_model=mpa-0 structure_key=3526299628b59c4551f59fb5c7412162aa41bf2baecf5facdb8a829af22a4d87 pbc="T T T"
Si       0.00000000       0.00000000       0.00000000      -0.00000000      -0.00000000       0.00000000
Si       1.46308333       1.46308333       1.46308333       0.00000000      -0.00000000       0.00000000
Si       0.00000000       2.92616667       2.92616667      -0.00000000       0.00000000      -0.00000000
Si       1.46308333       4.38925000       4.38925000       0.00000000       0.00000000       0.00000000
Si       2.92616667       0.00000000       2.92616667      -0.00000000      -0.00000000      -0.00000000
Si       4.38925000       1.46308333       4.38925000      -0.00000000       0.00000000       0.00000000
Si       2.92616667       2.92616667       0.00000000       0.00000000       0.00000000       0.00000000
Si       4.38925000       4.38925000       1.46308333       0.00000000       0.00000000      -0.00000000
8
Lattice="5.973 0.0 0.0 0.0 5.973 0.0 0.0 0.0 5.973" Properties=species:S:1:pos:R:3:forces:R:3 config_type=bulk energy=-40.60653700130229 virial="-18.54761879391544 2.017061542398762e-16 -1.839066437945005e-15 2.017061542398762e-16 -18.5476187939154 -5.808922017360328e-16 -1.839066437945005e-15 -5.808922017360328e-16 -18.54761879391542" label_model=mpa-0 structure_key=b97acf4691b007dc80f1c3844a668e4a781916e800b7c90b92021216cdeb008b pbc="T T T"
Si       0.00000000       0.00000000       0.00000000       0.00000000       0.00000000      -0.00000000
Si       1.49325000       1.49325000       1.49325000       0.00000000      -0.00000000      -0.00000000
Si       0.00000000       2.98650000       2.98650000       0.00000000       0.00000000       0.00000000
Si       1.49325000       4.47975000       4.47975000      -0.00000000      -0.00000000      -0.00000000
Si       2.98650000       0.00000000       2.98650000       0.00000000       0.00000000       0.00000000
Si       4.47975000       1.49325000       4.47975000      -0.00000000      -0.00000000      -0.00000000
Si       2.98650000       2.98650000       0.00000000       0.00000000       0.00000000      -0.00000000
Si       4.47975000       4.47975000       1.49325000      -0.00000000      -0.00000000      -0.00000000
8
Lattice="4.887 0.0 0.0 0.0 4.887 0.0 0.0 0.0 4.887" Properties=species:S:1:pos:R:3:forces:R:3 config_type=bulk energy=-36.55934723193223 virial="43.68786782293717 0.966659570790908 -1.0628086785457427 0.966659570790908 43.575882222503054 -1.2535329565564057 -1.0628086785457427 -1.2535329565564057 43.82673254024767" label_model=mpa-0 structure_key=a10263e03bd911c14038557d1a1d4f2f29be45d83512637d422eac221d03754b pbc="T T T"
Si      -0.00863437      -0.02785748       0.00623141      -0.20888583       0.50073471       0.28254836
Si       1.22148530       1.25074415       1.22771305      -0.22427486      -0.37186550      -0.90839300
Si      -0.01659792       2.41157683       2.45576876       1.07668913       0.46503836       0.18996007
Si       1.21539806       3.66377007       3.65307738       0.15146865      -0.68281907       0.48822677
Si       2.40350254       0.01816481       2.45315960       0.86744636      -0.46901007      -0.57837598
Si       3.66968757       1.23503058       3.64033386      -0.27005186      -1.26544327       0.85285290
Si       2.48287758       2.43712702       0.00719536      -0.79296778       0.24096146      -0.53101902
Si       3.68017342       3.61075282       1.25525758      -0.59942382       1.58240338       0.20419989
8
Lattice="5.007666666666666 0.0 0.0 0.0 5.007666666666666 0.0 0.0 0.0 5.007666666666666" Properties=species:S:1:pos:R:3:forces:R:3 config_type=bulk energy=-39.361703775489715 virial="32.157739971141545 0.8926016031493285 0.21422363732456368 0.8926016031493285 32.28925995212536 1.9914803999088095 0.21422363732456368 1.9914803999088095 32.18325455916519" label_model=mpa-0 structure_key=c5f45d0e0ba5b1292b850f1a36a8e279a9b6e2660502b33acf6bad8cf02c7af3 pbc="T T T"
Si       0.00818480       0.00612626      -0.01970961      -0.49774264       0.40760395       0.89363881
Si       1.25362670       1.24267002       1.26368075      -0.07152992       0.32732307      -0.25383269
Si       0.01673065       2.49834799       2.54252825      -0.55977481       0.07592277      -1.01928482
Si       1.20303852       3.78443814       3.75524109       1.23773298      -0.37412419      -0.01395111
Si       2.50235240       0.00660115       2.51280697      -0.00668694      -0.46519262      -0.07758138
Si       3.75593366       1.24150931       3.74757663      -0.28969147       0.33091618       0.34452737
Si       2.50161011       2.51900141      -0.00128277      -0.44556225      -0.22699404      -0.44586190
Si       3.74313853       3.76062190       1.23491243       0.63325504      -0.07545513       0.57234572
8
Lattice="5.128333333333334 0.0 0.0 0.0 5.128333333333334 0.0 0.0 0.0 5.128333333333334" Properties=species:S:1:pos:R:3:forces:R:3 config_type=bulk energy=-41.126770504909565 virial="22.59327701783548 1.4173061385549446 1.4416279676195625 1.4173061385549446 22.49961588212323 -2.75635225645364 1.4416279676195625 -2.75635225645364 22.389305232988725" label_model=mpa-0 structure_key=4c19ff45917f7c91e2ec352b2c6c554da4663feb2c9b3680ddc62e6057ce76bb pbc="T T T"
Si      -0.02279584       0.01745016      -0.03373523       1.57414780      -0.78965595       0.94831756
Si       1.30195280       1.32660518       1.26067360      -0.65835573      -1.29529530       0.76859796
Si       0.00061911       2.58972137       2.55253736      -0.75142445      -0.97536199      -0.04353848
Si       1.27126685       3.82407721       3.80004305      -0.20597865       0.33971605       0.96451187
Si       2.54642130      -0.01390002       2.60473107       0.61837914       0.45829880      -1.04613043
Si       3.86770750       1.24434725       3.89426245      -1.06131041       1.57766664      -1.11132797
Si       2.51834825       2.58001066       0.01664700       0.94946179       0.17641044      -1.00059313
Si       3.85955557       3.83747687       1.24187946      -0.46491949       0.50822130       0.52016262
8
Lattice="5.249 0.0 0.0 0.0 5.249 0.0 0.0 0.0 5.249" Properties=species:S:1:pos:R:3:forces:R:3 config_type=bulk energy=-42.50662297529234 virial="12.857138651671034 0.17569691685897093 0.13506938007555325 0.17569691685897093 12.875944201132818 -0.57243783683083 0.13506938007555325 -0.57243783683083 12.84007510536734" label_model=mpa-0 structure_key=b03bfde0fd5688b8c99bbafdf2a91d1dbbb5edd51d29f0fecfba15d7a3939008 pbc="T T T"
Si      -0.00832629      -0.01278042       0.00561206      -0.22308153       0.36522583       0.08126266
Si       1.32976008       1.35235379       1.27361061      -0.58568544      -0.69097271       0.63254321
Si      -0.00325717       2.64757565       2.60555890       0.18745253      -0.13741080       0.35240559
Si       1.32711089       3.94599066       3.97505258      -0.45043909       0.22274700      -0.83039843
Si       2.62184880       0.01366197       2.62377220      -0.28597474      -0.13567916      -0.26098449
Si       3.91436286       1.31475660       3.92137911       0.40405900       0.21583454       0.24250436
Si       2.58719148       2.63842940      -0.00380540       0.82358505      -0.22068198      -0.35807525
Si       3.90484685       3.91425805       1.30019500       0.13008422       0.38093728       0.14074235
8
Lattice="5.369666666666666 0.0 0.0 0.0 5.369666666666666 0.0 0.0 0.0 5.369666666666666" Properties=species:S:1:pos:R:3:forces:R:3 config_type=bulk energy=-43.13114254253159 virial="5.206644428318476 0.013146985662729599 0.2867176073319224 0.013146985662729599 5.228125632005498 0.10809512707034517 0.2867176073319224 0.10809512707034517 5.231591288114387" label_model=mpa-0 structure_key=c6e3985e84e7c8efe766d4cad00d4f7a2889573bfbc514cf9251889940acd5cd pbc="T T T"
Si       0.02807120      -0.02246944       0.00362407      -0.20871327       0.24889570      -0.03126784
Si       1.34985037       1.34904573       1.35474713      -0.07936958      -0.08958836      -0.08123160
Si      -0.01439084       2.69269280       2.65538158       0.11368872      -0.18151710       0.61896309
Si       1.37504113       4.04125434       4.02303598      -0.36614738      -0.34754596      -0.11165905
Si       2.69127804       0.01716521       2.70902576      -0.01588980      -0.26107069      -0.51995569
Si       3.99097738       1.31935272       4.03584318       0.70193178       0.37051489       0.18981206
Si       2.68273146       2.69145820       0.01061098      -0.00593800      -0.09866673      -0.07109026
Si       4.03184809       4.01566614       1.33909090      -0.13956247       0.35897825       0.00642929
8
Lattice="5.490333333333333 0.0 0.0 0.0 5.490333333333333 0.0 0.0 0.0 5.490333333333333" Properties=species:S:1:pos:R:3:forces:R:3 config_type=bulk energy=-43.28754938559357 virial="-1.088087110605149 -0.14730846462901487 -0.15970321745843474 -0.14730846462901487 -1.0669007962729489 -0.064532397705448 -0.15970321745843474 -0.064532397705448 -1.0527097967920893" label_model=mpa-0 structure_key=f9cd788294ec22f2d13ece68ff9bb3f8c904a0d06712cbadd20e373f7bb08e80 pbc="T T T"
Si       0.03035422      -0.02059767       0.00804995      -0.25831750       0.00368625       0.00806017
Si       1.34582237       1.35767741       1.38684524       0.12472777       0.17160003       0.06159606
Si      -0.03583756       2.73761003       2.76710692       0.28907620       0.20815121      -0.15434852
Si       1.38819602       4.10618484       4.13102339      -0.05154158      -0.00045128      -0.21910957
Si       2.75273606       0.02710098       2.75879952      -0.05467348      -0.14499330       0.04864975
Si       4.13815381       1.38176151       4.13953381      -0.11659888      -0.24481982       0.08002817
Si       2.73068693       2.71883101      -0.00449869       0.09575070       0.13905957       0.28315631
Si       4.10434464       4.13002822       1.38533060      -0.02842322      -0.13223266      -0.10803238
8
Lattice="5.611000000000001 0.0 0.0 0.0 5.611000000000001 0.0 0.0 0.0 5.611000000000001" Properties=species:S:1:pos:R:3:forces:R:3 config_type=bulk energy=-43.03637391225982 virial="-6.418459156667846 0.0861260886369165 -0.2636400346567682 0.0861260886369165 -6.4423078903989905 0.09911149290054273 -0.2636400346567682 0.09911149290054273 -6.43065939572063" label_model=mpa-0 structure_key=e5bf2aa82350722693d27277adb7f5457455a09c2e89b52873b0479ae74a6480 pbc="T T T"
Si       0.01921965      -0.01854170      -0.02751153      -0.07517437       0.14759575       0.23045797
Si       1.41233372       1.42557451       1.39542847      -0.07834536      -0.26363748       0.03444343
Si      -0.00358072       2.79042816       2.82209268      -0.05191304       0.06834656      -0.17659627
Si       1.41189565       4.18827537       4.19545726      -0.02622011      -0.04175814       0.11737258
Si       2.79082000      -0.03550677       2.80021221       0.05101336       0.40178382       0.03163947
Si       4.21189607       1.39300221       4.21436352      -0.09288279      -0.08443606      -0.01545021
Si       2.82675892       2.82485274       0.02368486      -0.08822710      -0.16813484      -0.21612072
Si       4.19007893       4.21832182       1.40953344       0.36174941      -0.05975960      -0.00574624
8
Lattice="5.7316666666666665 0.0 0.0 0.0 5.7316666666666665 0.0 0.0 0.0 5.7316666666666665" Properties=species:S:1:pos:R:3:forces:R:3 config_type=bulk energy=-42.451452337126625 virial="-11.380825811461529 -0.20508377828994487 -0.1930895087326952 -0.20508377828994487 -11.397328003666697 -0.09953299727051282 -0.1930895087326952 -0.09953299727051282 -11.386333912954203" label_model=mpa-0 structure_key=969eb6709875337499b14af54218aeae7f895e4aad59cc7881f7e58f6bd6c746 pbc="T T T"
Si       0.00735418      -0.00184435      -0.00890291      -0.05330668       0.05311840       0.00233178
Si       1.46268454       1.43574336       1.39662428      -0.25123598      -0.14469885       0.23176613
Si      -0.03236493       2.86449720       2.82483273       0.35576286      -0.02547548       0.23155185
Si       1.43020517       4.29385916       4.30518416      -0.07151683      -0.03697375      -0.28165262
Si       2.87122562      -0.00905742       2.85555564       0.01398266       0.05630856       0.06327011
Si       4.28506984       1.47109768       4.31300741       0.17883905      -0.44612411      -0.33665924
Si       2.87403832       2.84257926      -0.02143781      -0.12716174       0.27708463       0.07761069
Si       4.29751717       4.26801148       1.40846539      -0.04536334       0.26676060       0.01178129
8
Lattice="5.852333333333334 0.0 0.0 0.0 5.852333333333334 0.0 0.0 0.0 5.852333333333334" Properties=species:S:1:pos:R:3:forces:R:3 config_type=bulk energy=-41.60996943978322 virial="-15.429817534319067 -0.0515465484554741 0.2891542180479332 -0.0515465484554741 -15.402993291073376 -0.4442907815032876 0.2891542180479332 -0.4442907815032876 -15.40474002033902" label_model=mpa-0 structure_key=bc8b1bddae89150f76dac64c6cc80f523c17f0d30b4d6c551cfa35e0fb02bedd pbc="T T T"
Si      -0.00069747       0.00532018       0.00459807       0.20944062      -0.11019817      -0.06003187
Si       1.48305978       1.44996732       1.48534205      -0.22660382       0.22761864      -0.26709984
Si      -0.00462450       2.94898697       2.89306080       0.25201172      -0.23072122       0.26581963
Si       1.48063821       4.40148947       4.36775384      -0.18878870      -0.05174084       0.18441442
Si       2.89878804       0.01086564       2.91664581       0.46582433      -0.15826402       0.09266506
Si       4.42364219       1.45475104       4.37544469      -0.29946131       0.16272776       0.04094152
Si       2.94067232       2.92899341       0.01272101       0.06593233      -0.13659175      -0.18718290
Si       4.40978730       4.36966002       1.46113235      -0.27835516       0.29716960      -0.06952602
8
Lattice="5.973 0.0 0.0 0.0 5.973 0.0 0.0 0.0 5.973" Properties=species:S:1:pos:R:3:forces:R:3 config_type=bulk energy=-40.56759111377792 virial="-18.53354012449407 0.24250503922847202 0.08920361008909988 0.24250503922847202 -18.483861305384934 0.36305679877953523 0.08920361008909988 0.36305679877953523 -18.514143648157532" label_model=mpa-0 structure_key=fb03eeaab2f40742acd8b22717e0547867e7969217f9963b607bbd31639654d7 pbc="T T T"
Si       0.00628957      -0.00670044       0.01206392      -0.11272853      -0.03874597      -0.30132104
Si       1.49308131       1.46961099       1.50564517       0.22508021      -0.00786331      -0.02113011
Si       0.01997589       2.96589168       2.95874022      -0.24948935      -0.01750718       0.04594570
Si       1.49230242       4.44460371       4.46387988       0.12879753       0.15749783       0.15424517
Si       3.03505440      -0.02593779       2.99858304      -0.43099187      -0.09312532      -0.23039092
Si       4.44046811       1.47637209       4.44313756       0.46746055       0.09476120       0.31357463
Si       2.99238794       2.97577567       0.00557534      -0.18831258      -0.11012088      -0.16992061
Si       4.48697675       4.46327436       1.45935528       0.16018404       0.01510363       0.20899718
8
Lattice="4.887 0.0 0.0 0.0 4.887 0.0 0.0 0.0 4.887" Properties=species:S:1:pos:R:3:forces:R:3 config_type=bulk energy=-36.14251750953404 virial="44.25139412350152 1.881186889775199 -2.1982478214946553 1.881186889775199 43.81171127005403 -2.6892535944824156 -2.1982478214946553 -2.6892535944824156 44.788843626540135" label_model=mpa-0 structure_key=98032c95f1d54938248b7feb0f6889618d58d0631f2ddcbf61e8ba6c58cef187 pbc="T T T"
Si      -0.01726874      -0.05571496       0.01246283      -0.38472546       0.94760643       0.53009707
Si       1.22122060       1.27973831       1.23367611      -0.36250976      -0.68205444      -1.79004942
Si      -0.03319584       2.37965366       2.46803751       2.44053622       0.97498580       0.32598634
Si       1.20904612       3.66229013       3.64090476       0.25206239      -1.31586158       0.91831409
Si       2.36350508       0.03632963       2.46281920       1.63360803      -0.83428679      -0.98063203
Si       3.67412514       1.24831117       3.61541773      -0.81388528      -2.67282739       1.83117943
Si       2.52225516       2.43075404       0.01439072      -1.55437947       0.40381354      -1.02298174
Si       3.69509684       3.55625564       1.28876515      -1.21070666       3.17862442       0.18808627
8
Lattice="5.007666666666666 0.0 0.0 0.0 5.007666666666666 0.0 0.0 0.0 5.007666666666666" Properties=species:S:1:pos:R:3:forces:R:3 config_type=bulk energy=-39.09762021892032 virial="32.31590125441551 1.6007678733813353 0.42596996604313203 1.6007678733813353 32.866249606294915 4.062566640679573 0.42596996604313203 4.062566640679573 32.43864113137551" label_model=mpa-0 structure_key=073b565a49e14d3a3dda06e9cd2f71c309998400d5b4eecd05d61c7bb4cc6e69 pbc="T T T"
Si       0.01636961       0.01225252      -0.03941922      -1.07226598       0.95502119       1.93258194
Si       1.25533674       1.23342337       1.27544484      -0.16481305       0.65193488      -0.50487300
Si       0.03346130       2.49286265       2.58122317      -1.02996952      -0.01506606      -1.97781085
Si       1.15416037       3.81312629       3.75473217       2.55693387      -0.78464814      -0.20202693
Si       2.50087147       0.01320230       2.52178061      -0.03105759      -0.94555970      -0.15660372
Si       3.75611732       1.23110195       3.73940327      -0.56845428       0.66739484       0.67160434
Si       2.49938689       2.53416950      -0.00256553      -0.88197584      -0.48456437      -0.86081453
Si       3.73052706       3.76549380       1.21790820       1.19160239      -0.04451264       1.09794276
8
Lattice="5.128333333333334 0.0 0.0 0.0 5.128333333333334 0.0 0.0 0.0 5.128333333333334" Properties=species:S:1:pos:R:3:forces:R:3 config_type=bulk energy=-40.30277978781038 virial="23.996179315868183 2.7055303240539907 2.9785194624494014 2.7055303240539907 23.68234481937978 -5.830697149042342 2.9785194624494014 -5.830697149042342 23.163732102721156" label_model=mpa-0 structure_key=83e2f3c779e27af92d5f76d71438cc5b4fd9206d2f3122510a855ee5275c89f4 pbc="T T T"
Si      -0.04559168       0.03490032      -0.06747047       3.48640031      -2.01926157       2.21613193
Si       1.32182227       1.37112704       1.23926386      -1.49722078      -2.73362093       1.78116213
Si       0.00123822       2.61527607       2.54090806      -1.52385547      -1.94784411      -0.24164746
Si       1.26045037       3.80190441       3.75383609      -0.27709701       0.62406985       2.01196270
Si       2.52867593      -0.02780004       2.64529546       1.29105163       1.05805465      -2.00456666
Si       3.88916500       1.20661116       3.94227490      -2.63661283       3.46754764      -2.59194659
Si       2.47252983       2.59585466       0.03329400       1.99325995       0.68430488      -2.11568254
Si       3.87286114       3.82870374       1.20167558      -0.83592578       0.86674961       0.94458649
8
Lattice="5.249 0.0 0.0 0.0 5.249 0.0 0.0 0.0 5.249" Properties=species:S:1:pos:R:3:forces:R:3 config_type=bulk energy=-42.23820345271679 virial="13.41708627493261 0.4004980314758635 0.26240064256136963 0.4004980314758635 13.528239356274986 -1.3904358189118646 0.26240064256136963 -1.3904358189118646 13.366078048371557" label_model=mpa-0 structure_key=8380d3e489e118a0708a60960fa51f456537c46485a221c427ba3789dabaf058 pbc="T T T"
Si      -0.01665257      -0.02556085       0.01122412      -0.44392527       0.73157497       0.16976287
Si       1.34727015       1.39245759       1.23497123      -1.32454761      -1.55539716       1.42408566
Si      -0.00651433       2.67065130       2.58661780       0.37191595      -0.28137298       0.68419435
Si       1.34197178       3.95523133       4.01335516      -0.94928674       0.58787342      -1.75334848
Si       2.61919759       0.02732393       2.62304441      -0.58050837      -0.31184612      -0.54894283
Si       3.89197573       1.31726320       3.90600822       0.81037990       0.46743943       0.51372492
Si       2.54988296       2.65235880      -0.00761080       1.84366374      -0.40397935      -0.78738568
Si       3.87294370       3.89176610       1.28814000       0.27230842       0.76570780       0.29790918
8
Lattice="5.369666666666666 0.0 0.0 0.0 5.369666666666666 0.0 0.0 0.0 5.369666666666666" Properties=species:S:1:pos:R:3:forces:R:3 config_type=bulk energy=-42.96495070713124 virial="5.637499575591079 0.1346416473688113 0.7253407844616273 0.1346416473688113 5.723524628990976 0.26640821901847345 0.7253407844616273 0.26640821901847345 5.746380083825162" label_model=mpa-0 structure_key=5a849dd5ffdf06b75add928db0c70f198ea145e2a9947c8bdc5e398ae9c84f79 pbc="T T T"
Si       0.05614241      -0.04493888       0.00724814      -0.43423850       0.49963205      -0.04163223
Si       1.35728407       1.35567479       1.36707759      -0.15404415      -0.19209125      -0.16417386
Si      -0.02878168       2.70055227       2.62592983       0.28231621      -0.41304239       1.26696278
Si       1.40766559       4.05525868       4.01882196      -0.74520307      -0.71893203      -0.20021813
Si       2.69772274       0.03433042       2.73321819      -0.11384688      -0.59035609      -1.18819583
Si       3.95470475       1.29628878       4.04443637       1.49622617       0.83979414       0.50957568
Si       2.68062958       2.69808307       0.02122197      -0.01720581      -0.20491485      -0.15124648
Si       4.03644619       4.00408229       1.33576513      -0.31400397       0.77991041      -0.03107193
8
Lattice="5.490333333333333 0.0 0.0 0.0 5.490333333333333 0.0 0.0 0.0 5.490333333333333" Properties=species:S:1:pos:R:3:forces:R:3 config_type=bulk energy=-43.215532579249846 virial="-1.0852482431301607 -0.28380801857599747 -0.35518173054252145 -0.28380801857599747 -0.9879812111835553 -0.1626530289729916 -0.35518173054252145 -0.1626530289729916 -0.9325624580984578" label_model=mpa-0 structure_key=97aa113acc2c80173b032acff38e35797111a277a04205140203b9496e89ec5c pbc="T T T"
Si       0.06070845      -0.04119534       0.01609991      -0.53320664       0.00067337       0.01445934
Si       1.31906140       1.34277149       1.40110715       0.25570783       0.35252221       0.13850057
Si      -0.07167512       2.73005340       2.78904717       0.60569725       0.45565415      -0.35093435
Si       1.40380871       4.09461968       4.14429679      -0.10576214       0.00277011      -0.45354842
Si       2.76030545       0.05420196       2.77243238      -0.10852411      -0.28500161       0.09561433
Si       4.15855761       1.39093968       4.16131762      -0.25263813      -0.53016779       0.20171817
Si       2.71620720       2.69249536      -0.00899738       0.18462788       0.26516955       0.57002158
Si       4.09093928       4.14230643       1.39807787      -0.04590195      -0.26161999      -0.21583122
8
Lattice="5.611000000000001 0.0 0.0 0.0 5.611000000000001 0.0 0.0 0.0 5.611000000000001" Properties=species:S:1:pos:R:3:forces:R:3 config_type=bulk energy=-42.95287536865211 virial="-6.338516028611368 0.20939546417673388 -0.5612004213599828 0.20939546417673388 -6.432571870642359 0.238122183263342 -0.5612004213599828 0.238122183263342 -6.38636354319099" label_model=mpa-0 structure_key=e53f48dc1542a98cc9656085553872749c12a924356769d49a5e6cd7fd348d2a pbc="T T T"
Si       0.03843930      -0.03708340      -0.05502306      -0.15911352       0.30372830       0.47277514
Si       1.42191743       1.44839901       1.38810694      -0.15980498      -0.53953802       0.07419503
Si      -0.00716144       2.77535633       2.83868536      -0.10475885       0.14163927      -0.36285055
Si       1.42104129       4.16830073       4.18266452      -0.05313549      -0.10248190       0.24934490
Si       2.77614000      -0.07101354       2.79492441       0.08974861       0.84136070       0.06793672
Si       4.21554213       1.38325443       4.22047704      -0.19271808      -0.17217995      -0.02618515
Si       2.84801784       2.84420547       0.04736972      -0.19522621      -0.35774848      -0.46178171
Si       4.17190786       4.22839365       1.41631689       0.77500852      -0.11477993      -0.01343438
8
Lattice="5.7316666666666665 0.0 0.0 0.0 5.7316666666666665 0.0 0.0 0.0 5.7316666666666665" Properties=species:S:1:pos:R:3:forces:R:3 config_type=bulk energy=-42.32401499712168 virial="-11.310547941153489 -0.5138846236758431 -0.4677405503951446 -0.5138846236758431 -11.389670005416749 -0.18356226566309586 -0.4677405503951446 -0.18356226566309586 -11.332581246731742" label_model=mpa-0 structure_key=59b252626ca0d9409fd8428f3ab8c7a70f0d90c9ca5b0b70b2b7c926edded5da pbc="T T T"
Si       0.01470837      -0.00368871      -0.01780582      -0.11794421       0.11339789       0.00704551
Si       1.49245241       1.43857005       1.36033189      -0.52037976      -0.30617022       0.48646291
Si      -0.06472986       2.86316107       2.78383212       0.73394639      -0.08505874       0.49298273
Si       1.42749367       4.28896832       4.31161833      -0.14007170      -0.07762113      -0.57005812
Si       2.87661791      -0.01811484       2.84527795       0.02962897       0.11937500       0.12688046
Si       4.27138968       1.50927869       4.32726482       0.43641172      -0.95039471      -0.73867472
Si       2.88224331       2.81932518      -0.04287561      -0.30961980       0.62211722       0.19455555
Si       4.29628434       4.23727296       1.38401411      -0.11197162       0.56435468       0.00080568
8
Lattice="5.852333333333334 0.0 0.0 0.0 5.852333333333334 0.0 0.0 0.0 5.852333333333334" Properties=species:S:1:pos:R:3:forces:R:3 config_type=bulk energy=-41.49061970523792 virial="-15.444587934906659 -0.157698980652642 0.6448059002231221 -0.157698980652642 -15.337868395439923 -0.9666901428528534 0.6448059002231221 -0.9666901428528534 -15.346805335530675" label_model=mpa-0 structure_key=6ea3be5cc967a5fdd8db3dabc7ae3273e3a4366473a2cc13b2cde67a3451b039 pbc="T T T"
Si      -0.00139495       0.01064035       0.00919614       0.41873632      -0.21994653      -0.11354283
Si       1.50303624       1.43685131       1.50760076      -0.47979864       0.48497796      -0.55955929
Si      -0.00924899       2.97180727       2.85995493       0.53153110      -0.48551821       0.55641991
Si       1.49819309       4.41372893       4.34625769      -0.38553722      -0.11386789       0.37297217
Si       2.87140941       0.02173128       2.90712495       0.95248136      -0.32923512       0.21267120
Si       4.45803439       1.44641876       4.36163939      -0.59516522       0.32355802       0.07125524
Si       2.95517797       2.93182015       0.02544203       0.12615475      -0.27399098      -0.37240487
Si       4.43032460       4.35007005       1.45918137      -0.56840245       0.61402274      -0.16781154
8
Lattice="5.973 0.0 0.0 0.0 5.973 0.0 0.0 0.0 5.973" Properties=species:S:1:pos:R:3:forces:R:3 config_type=bulk energy=-40.45053545109055 virial="-18.478683433962562 0.5055278519316192 0.19192871957113578 0.5055278519316192 -18.271157488087262 0.7574547192742221 0.19192871957113578 0.7574547192742221 -18.399959514907074" label_model=mpa-0 structure_key=7485ad6bddb97f1aa5378f7ee7450530dcf19af2e3c4caac1eef16fa4d16e42c pbc="T T T"
Si       0.01257915      -0.01340087       0.02412785      -0.21274525      -0.07790186      -0.58788763
Si       1.49291262       1.44597197       1.51804035       0.44619736      -0.02362120      -0.05022407
Si       0.03995179       2.94528336       2.93098044      -0.49513461      -0.02651549       0.09731456
Si       1.49135484       4.40945743       4.44800977       0.25551328       0.31388003       0.30009082
Si       3.08360880      -0.05187559       3.01066608      -0.86637844      -0.23195319      -0.47962644
Si       4.40118622       1.45949419       4.40652511       0.93230802       0.23986158       0.63905163
Si       2.99827588       2.96505134       0.01115068      -0.37138111      -0.22674078      -0.33604432
Si       4.49420350       4.44679871       1.42546056       0.31162074       0.03299093       0.41732545
8
Lattice="4.887 0.0 0.0 0.0 4.887 0.0 0.0 0.0 4.887" Properties=species:S:1:pos:R:3:forces:R:3 config_type=bulk energy=-35.43642418986546 virial="45.2258394534406 2.7437679459872553 -3.4189509306235975 2.7437679459872553 44.237983324995 -4.341747662445606 -3.4189509306235975 -4.341747662445606 46.366648745213865" label_model=mpa-0 structure_key=a15f51f35bfd1a5e4ca159a3d23a1128f15ecc71b81301114b1b923a63e0e0b3 pbc="T T T"
Si      -0.02590311      -0.08357244       0.01869424      -0.53385033       1.33740346       0.74980211
Si       1.22095591       1.30873246       1.23963916      -0.41711600      -0.92478057      -2.65049873
Si      -0.04979376       2.34773049       2.48030627       4.16915895       1.54173370       0.38860436
Si       1.20269417       3.66081020       3.62873215       0.30857172      -1.90362520       1.29184089
Si       2.32350762       0.05449444       2.47247880       2.29809369      -1.09568378      -1.23709674
Si       3.67856271       1.26159175       3.59050159      -1.68407530      -4.25819997       2.97618755
Si       2.56163274       2.42438106       0.02158607      -2.28540506       0.50438875      -1.47726508
Si       3.71002026       3.50175846       1.32227273      -1.85537768       4.79876361      -0.04157436
8
Lattice="5.007666666666666 0.0 0.0 0.0 5.007666666666666 0.0 0.0 0.0 5.007666666666666" Properties=species:S:1:pos:R:3:forces:R:3 config_type=bulk energy=-38.655416863226776 virial="32.567780745624674 2.120850515638357 0.6110703535767453 2.120850515638357 33.85534729966625 6.248342040944205 0.6110703535767453 6.248342040944205 32.89097752430158" label_model=mpa-0 structure_key=91817d158fa30bbd0d2e993603ccf7dc73f69976b0194109c3d49c5586d9c977 pbc="T T T"
Si       0.02455441       0.01837879      -0.05912884      -1.73245178       1.66570663       3.14612261
Si       1.25704678       1.22417672       1.28720892      -0.27892881       0.97458736      -0.75259914
Si       0.05019195       2.48737730       2.61991809      -1.41537922      -0.25706131      -2.87491537
Si       1.10528222       3.84181443       3.75422326       3.95401956      -1.26398762      -0.59622511
Si       2.49939054       0.01980344       2.53075424      -0.07002178      -1.43769970      -0.23914369
Si       3.75630098       1.22069460       3.73122990      -0.83804004       1.01436990       0.97909704
Si       2.49716366       2.54933758      -0.00384830      -1.30629278      -0.77287515      -1.24730693
Si       3.71791558       3.77036570       1.20090397       1.68709485       0.07695990       1.58497060
8
Lattice="5.128333333333334 0.0 0.0 0.0 5.128333333333334 0.0 0.0 0.0 5.128333333333334" Properties=species:S:1:pos:R:3:forces:R:3 config_type=bulk energy=-38.823089385196404 virial="26.461653310896747 3.6897476894655505 4.705481459460103 3.6897476894655505 25.8831756605486 -9.352073800664996 4.705481459460103 -9.352073800664996 24.502350813298857" label_model=mpa-0 structure_key=18a02fce28a5d420c66a385c00782cc1d8f4e044c801a8cdd0b8736c58c92b3a pbc="T T T"
Si      -0.06838752       0.05235048      -0.10120570       5.91996780      -3.83465963       3.91968731
Si       1.34169174       1.41564889       1.21785412      -2.52463363      -4.36871754       3.07313544
Si       0.00185733       2.64083076       2.52927875      -2.35956071      -2.92659445      -0.59684196
Si       1.24963389       3.77973162       3.70762914      -0.19094555       0.85801597       3.13739390
Si       2.51093057      -0.04170007       2.68585986       2.00975171       1.77851349      -2.87148792
Si       3.91062250       1.16887507       3.99028735      -4.87409670       5.84504139      -4.56224887
Si       2.42671141       2.61169866       0.04994100       3.15272710       1.57070668      -3.38831979
Si       3.88616671       3.81993060       1.16147171      -1.13321002       1.07769409       1.28868189
8
Lattice="5.249 0.0 0.0 0.0 5.249 0.0 0.0 0.0 5.249" Properties=species:S:1:pos:R:3:forces:R:3 config_type=bulk energy=-41.75749071008249 virial="14.199415627356409 0.6714966781290034 0.38033086428680885 0.6714966781290034 14.54019159101081 -2.4443325670753766 0.38033086428680885 -2.4443325670753766 14.12493392837047" label_model=mpa-0 structure_key=c34d55578e5a557475ba23236bec6cc1fc3bc477d667cf8255160bf395587c8d pbc="T T T"
Si      -0.02497886      -0.03834127       0.01683618      -0.66766074       1.09603372       0.25931406
Si       1.36478023       1.43256138       1.19633184      -2.21835115      -2.61132741       2.39345646
Si      -0.00977150       2.69372695       2.56767671       0.55100206      -0.43187021       0.99533054
Si       1.35683267       3.96447199       4.05165773      -1.49434356       1.10903458      -2.76840057
Si       2.61654639       0.04098590       2.62231661      -0.89375407      -0.53531598      -0.86784798
Si       3.86958859       1.31976979       3.89063733       1.23478687       0.75570722       0.81550974
Si       2.51257444       2.66628820      -0.01141620       3.05930076      -0.53566506      -1.29627076
Si       3.84104055       3.86927414       1.27608501       0.42901984       1.15340314       0.46890851
8
Lattice="5.369666666666666 0.0 0.0 0.0 5.369666666666666 0.0 0.0 0.0 5.369666666666666" Properties=species:S:1:pos:R:3:forces:R:3 config_type=bulk energy=-42.668531685023424 virial="6.2627443305044475 0.35386724137503756 1.3378568646486984 0.35386724137503756 6.458097358858822 0.48112887673202825 1.3378568646486984 0.48112887673202825 6.530558104293536" label_model=mpa-0 structure_key=34598d3006780cb1cd0365bc4c08d6293e5e1825bbbb2592b7de9aed87488b24 pbc="T T T"
Si       0.08421361      -0.06740832       0.01087221      -0.68137155       0.75740821      -0.03168483
Si       1.36471777       1.36230385       1.37940805      -0.22533375      -0.30968540      -0.24633998
Si      -0.04317252       2.70841174       2.59647808       0.51771933      -0.70600325       1.96239177
Si       1.44029006       4.06926302       4.01460794      -1.14055874      -1.12560030      -0.27169942
Si       2.70416745       0.05149562       2.75741062      -0.30756604      -0.99642067      -2.03019459
Si       3.91843213       1.27322484       4.05302955       2.40023271       1.42768682       0.98689286
Si       2.67852771       2.70470794       0.03183295      -0.03039163      -0.32043674      -0.24713534
Si       4.04104428       3.99249843       1.33243936      -0.53273033       1.27305132      -0.12223047
8
Lattice="5.490333333333333 0.0 0.0 0.0 5.490333333333333 0.0 0.0 0.0 5.490333333333333" Properties=species:S:1:pos:R:3:forces:R:3 config_type=bulk energy=-43.09179986707872 virial="-1.092628506908506 -0.41577134729930654 -0.6109815180030935 -0.41577134729930654 -0.8419245555939356 -0.3154469535546143 -0.6109815180030935 -0.3154469535546143 -0.7189910546154867" label_model=mpa-0 structure_key=631772a7f09227bc5ebec43ec6769055516c025f6904941b3b663d3ae128b4f0 pbc="T T T"
Si       0.09106267      -0.06179301       0.02414986      -0.83250314      -0.00982931       0.01744328
Si       1.29230044       1.32786557       1.41536906       0.39386082       0.55132242       0.23662012
Si      -0.10751269       2.72249677       2.81098743       0.96555662       0.76296661      -0.60933985
Si       1.41942140       4.08305452       4.15757018      -0.16322518       0.00819905      -0.71670855
Si       2.76787484       0.08130294       2.78606524      -0.16293186      -0.41996800       0.14446808
Si       4.17896142       1.40011785       4.18310143      -0.41617777      -0.87686278       0.38579839
Si       2.70172747       2.66615970      -0.01349606       0.27036180       0.37686146       0.87074271
Si       4.07753392       4.15458465       1.41082515      -0.05494129      -0.39268945      -0.32902417
8
Lattice="5.611000000000001 0.0 0.0 0.0 5.611000000000001 0.0 0.0 0.0 5.611000000000001" Properties=species:S:1:pos:R:3:forces:R:3 config_type=bulk energy=-42.80674947743965 virial="-6.168073250804859 0.3906614086360873 -0.9254857163317678 0.3906614086360873 -6.375036184361499 0.4447317406093369 -0.9254857163317678 0.4447317406093369 -6.273381272139821" label_model=mpa-0 structure_key=d3b71589af6179cec39103e025e4ff74bcfc7fe2a824f1ea1fe2c5b1226edfa5 pbc="T T T"
Si       0.05765895      -0.05562510      -0.08253458      -0.25248543       0.47075294       0.73375468
Si       1.43150115       1.47122352       1.38078541      -0.24794399      -0.83394388       0.12109694
Si      -0.01074216       2.76028449       2.85527803      -0.16041791       0.22407679      -0.56643824
Si       1.43018694       4.14832610       4.16987178      -0.08122579      -0.19336605       0.40451768
Si       2.76145999      -0.10652031       2.78963662       0.10907739       1.34172377       0.11445672
Si       4.21918820       1.37350664       4.22659055      -0.30802749      -0.26656933      -0.03049191
Si       2.86927676       2.86355821       0.07105458      -0.33159658      -0.58299130      -0.75765389
Si       4.15373678       4.23846547       1.42310033       1.27261981      -0.15968293      -0.01924199
8
Lattice="5.7316666666666665 0.0 0.0 0.0 5.7316666666666665 0.0 0.0 0.0 5.7316666666666665" Properties=species:S:1:pos:R:3:forces:R:3 config_type=bulk energy=-42.09414705448201 virial="-11.052634585813596 -1.0039727354217882 -0.8906616044842991 -1.0039727354217882 -11.275652661416558 -0.2134295701148457 -0.8906616044842991 -0.2134295701148457 -11.10264565713427" label_model=mpa-0 structure_key=871e0ea057619aa920a75a771e011b391b1c22780040d448198bd90c908a2a75 pbc="T T T"
Si       0.02206255      -0.00553306      -0.02670873      -0.19983882       0.18437849       0.01551502
Si       1.52222029       1.44139674       1.32403950      -0.81695026      -0.49725924       0.77808582
Si      -0.09709479       2.86182494       2.74283151       1.14817432      -0.20414696       0.80532975
Si       1.42478216       4.28407748       4.31805249      -0.19936566      -0.12452444      -0.86332904
Si       2.88201020      -0.02717227       2.83500026       0.04835546       0.18889662       0.18924303
Si       4.25770952       1.54745970       4.34152223       0.84037188      -1.56119479      -1.26451239
Si       2.89044830       2.79607111      -0.06431342      -0.60011519       1.09918950       0.39416092
Si       4.29505151       4.20653444       1.35956283      -0.22063173       0.91466082      -0.05449310
8
Lattice="5.852333333333334 0.0 0.0 0.0 5.852333333333334 0.0 0.0 0.0 5.852333333333334" Properties=species:S:1:pos:R:3:forces:R:3 config_type=bulk energy=-41.28416518873673 virial="-15.359889344858328 -0.3887902385384481 1.1244257773768147 -0.3887902385384481 -15.122652375413635 -1.6391284380445112 1.1244257773768147 -1.6391284380445112 -15.148589522232273" label_model=mpa-0 structure_key=04b60f693eeb9ac373e5dd3ad45810354f298d9dc3ff44f06b7eadf62e0e1b2d pbc="T T T"
Si      -0.00209242       0.01596053       0.01379422       0.62689880      -0.32865844      -0.15616556
Si       1.52301269       1.42373530       1.52985947      -0.78359802       0.79977933      -0.90392571
Si      -0.01387349       2.99462757       2.82684906       0.86237824      -0.78499255       0.89434721
Si       1.51574796       4.42596840       4.32476153      -0.59416935      -0.19455145       0.56997043
Si       2.84403079       0.03259693       2.89760409       1.47919864      -0.52918286       0.38310652
Si       4.49242658       1.43808647       4.34783408      -0.88122352       0.48158467       0.08750293
Si       2.96968363       2.93464689       0.03816304       0.17538041      -0.41251402      -0.55405634
Si       4.45086191       4.33048007       1.45723038      -0.88486521       0.96853531      -0.32077949
8
Lattice="5.973 0.0 0.0 0.0 5.973 0.0 0.0 0.0 5.973" Properties=species:S:1:pos:R:3:forces:R:3 config_type=bulk energy=-40.255314817485754 virial="-18.34479844633728 0.8061614828267535 0.33487197131309815 0.8061614828267535 -17.847457069573792 1.2113332457368995 0.33487197131309815 1.2113332457368995 -18.16151894853069" label_model=mpa-0 structure_key=6c150d42773c06a85c79fabbf4333df9319f0f9fe122b2b510ea64ff22d7d1ae pbc="T T T"
Si       0.01886872      -0.02010131       0.03619177      -0.29117198      -0.11826002      -0.84838151
Si       1.49274394       1.42233296       1.53043552       0.65864757      -0.04852246      -0.09170569
Si       0.05992768       2.92467505       2.90322066      -0.73189731      -0.02250522       0.15572202
Si       1.49040725       4.37431114       4.43213965       0.37583615       0.46588552       0.43358804
Si       3.13216320      -0.07781338       3.02274912      -1.31070358      -0.45062882      -0.76373305
Si       4.36190434       1.44261628       4.36991267       1.39404295       0.46930045       0.98686001
Si       3.00416381       2.95432700       0.01672602      -0.54571851      -0.34956158      -0.49468969
Si       4.50143025       4.43032307       1.39156585       0.45096470       0.05429212       0.62233988
8
Lattice="4.887 0.0 0.0 0.0 4.887 0.0 0.0 0.0 4.887" Properties=species:S:1:pos:R:3:forces:R:3 config_type=bulk energy=-34.425152014545084 virial="46.68645407352404 3.5716749297344 -4.734678226895072 3.5716749297344 44.906108123832865 -6.289793925444595 -4.734678226895072 -6.289793925444595 48.56524260262948" label_model=mpa-0 structure_key=2eb034ffa5db623214b9ceb17a2c2708be4b0bf983ac18c09929ca9107a30d18 pbc="T T T"
Si      -0.03453748      -0.11142992       0.02492565      -0.66255782       1.67064641       0.94763384
Si       1.22069121       1.33772662       1.24560222      -0.39541704      -1.09189330      -3.49302052
Si      -0.06639168       2.31580732       2.49257502       6.36511101       2.18145289       0.34839105
Si       1.19634223       3.65933027       3.61655953       0.33001914      -2.45765811       1.61399990
Si       2.28351016       0.07265926       2.48213839       2.87444198      -1.26225872      -1.37906174
Si       3.68300028       1.27487233       3.56558546      -2.95295940      -6.06341831       4.33829855
Si       2.60101033       2.41800809       0.02878143      -2.99451915       0.55844704      -1.89781071
Si       3.72494368       3.44726127       1.35578031      -2.56411871       6.46468210      -0.47843038
8
Lattice="5.007666666666666 0.0 0.0 0.0 5.007666666666666 0.0 0.0 0.0 5.007666666666666" Properties=species:S:1:pos:R:3:forces:R:3 config_type=bulk energy=-38.03113460001851 virial="32.909587577979956 2.4422608463092774 0.7427631775136933 2.4422608463092774 35.28926979888077 8.592624289085608 0.7427631775136933 8.592624289085608 33.576253008406276" label_model=mpa-0 structure_key=938d19b21a3c1888e9602ae70e4c8d3a187905d63a81875d3f22a538fc69cb4f pbc="T T T"
Si       0.03273921       0.02450505      -0.07883845      -2.49386493       2.57621947       4.57611447
Si       1.25875682       1.21493007       1.29897301      -0.41040161       1.29476905      -0.99610202
Si       0.06692261       2.48189196       2.65861302      -1.71837678      -0.63501630      -3.70844325
Si       1.05640407       3.87050257       3.75371435       5.42911608      -1.85348463      -1.24300172
Si       2.49790961       0.02640459       2.53972788      -0.12244617      -1.93982844      -0.32641670
Si       3.75648464       1.21028724       3.72305653      -1.09852649       1.37667486       1.26501372
Si       2.49494044       2.56450566      -0.00513106      -1.71701241      -1.09339360      -1.60927297
Si       3.70530411       3.77523760       1.18389973       2.13151232       0.27405960       2.04210845
8
Lattice="5.128333333333334 0.0 0.0 0.0 5.128333333333334 0.0 0.0 0.0 5.128333333333334" Properties=species:S:1:pos:R:3:forces:R:3 config_type=bulk energy=-36.54339641171338 virial="30.392105263930244 4.157130118887496 6.86653374514403 4.157130118887496 29.50530145669643 -13.618932522649878 6.86653374514403 -13.618932522649878 26.604624990316918" label_model=mpa-0 structure_key=904586310865a6cc42162bb2d302c6b8f890bd8e8470f2bacbd59b233fc0c8a2 pbc="T T T"
Si      -0.09118336       0.06980064      -0.13494094       9.29246927      -6.59263924       6.32550135
Si       1.36156121       1.46017074       1.19644438      -3.80036764      -6.30221024       4.72796607
Si       0.00247644       2.66638546       2.51764945      -3.31111571      -3.93438089      -1.12795825
Si       1.23881741       3.75755883       3.66142218       0.06514004       1.06635940       4.35932259
Si       2.49318520      -0.05560009       2.72642426       2.77370012       2.60498930      -3.65182553
Si       3.93208000       1.13113899       4.03829980      -8.15209429       9.07861637      -7.26940467
Si       2.38089299       2.62754266       0.06658800       4.50946563       2.92484982      -4.93156815
Si       3.89947229       3.81115747       1.12126784      -1.37719743       1.15441549       1.56796659
8
Lattice="5.249 0.0 0.0 0.0 5.249 0.0 0.0 0.0 5.249" Properties=species:S:1:pos:R:3:forces:R:3 config_type=bulk energy=-41.03585394278592 virial="15.163970731013142 0.9974629316539433 0.4935756552952145 0.9974629316539433 15.944672421250427 -3.7657127973567537 0.4935756552952145 -3.7657127973567537 15.105298287550958" label_model=mpa-0 structure_key=de3938639cc15a2b76c2d8fe12997fa2b2e92e917e5957033d25dfe97cf039f9 pbc="T T T"
Si      -0.03330514      -0.05112169       0.02244824      -0.89741069       1.44726947       0.34122960
Si       1.38229030       1.47266517       1.15769245      -3.27627149      -3.88233565       3.56567925
Si      -0.01302867       2.71680260       2.54873561       0.71394520      -0.58465571       1.27916574
Si       1.37169356       3.97371266       4.08996031      -2.09340148       1.81332361      -3.87326543
Si       2.61389518       0.05464787       2.62158882      -1.21772714      -0.80651933      -1.21119947
Si       3.84720146       1.32227639       3.87526644       1.67668881       1.07549011       1.14214139
Si       2.47526592       2.68021760      -0.01522160       4.48596387      -0.60553560      -1.90247095
Si       3.80913740       3.84678219       1.26403001       0.60821293       1.54296310       0.65871986
8
Lattice="5.369666666666666 0.0 0.0 0.0 5.369666666666666 0.0 0.0 0.0 5.369666666666666" Properties=species:S:1:pos:R:3:forces:R:3 config_type=bulk energy=-42.228347588678176 virial="6.985778706948688 0.6587398315710459 2.077065719141768 0.6587398315710459 7.328862980019509 0.7168742874966931 2.077065719141768 0.7168742874966931 7.495049784182709" label_model=mpa-0 structure_key=534ddd97d960e835497ae4c8564ab830304273221a44323e426cfd26eb9e36f1 pbc="T T T"
Si       0.11228482      -0.08987775       0.01449629      -0.93424824       1.00868212       0.00457562
Si       1.37215147       1.36893291       1.39173851      -0.29723570      -0.43653721      -0.32192434
Si      -0.05756336       2.71627121       2.56702633       0.82225720      -1.04513359       2.65347704
Si       1.47291452       4.08326736       4.01039392      -1.52990449      -1.54844764      -0.31453164
Si       2.71061215       0.06866083       2.78160304      -0.58890194      -1.44977149      -3.00950646
Si       3.88215951       1.25016089       4.06162274       3.35138704       2.10045473       1.61599164
Si       2.67642583       2.71133281       0.04244393      -0.04201944      -0.43896599      -0.35970734
Si       4.04564238       3.98091458       1.32911359      -0.78133442       1.80971906      -0.26837452
8
Lattice="5.490333333333333 0.0 0.0 0.0 5.490333333333333 0.0 0.0 0.0 5.490333333333333" Properties=species:S:1:pos:R:3:forces:R:3 config_type=bulk energy=-42.91200453728465 virial="-1.1267092363282563 -0.5440906440002296 -0.9342899004109133 -0.5440906440002296 -0.6197907260523006 -0.5319772351857235 -0.9342899004109133 -0.5319772351857235 -0.4021189407858583" label_model=mpa-0 structure_key=74f4d20c2831837ebfcfe38728c96d5c8f31bad201d95cdd1619283695f5608a pbc="T T T"
Si       0.12141690      -0.08239068       0.03219981      -1.15879025      -0.02819474       0.01745717
Si       1.26553947       1.31295965       1.42963096       0.53913866       0.77171753       0.35953387
Si      -0.14335025       2.71494013       2.83292768       1.37223626       1.14098574      -0.94526459
Si       1.43503409       4.07148936       4.17084357      -0.22233937       0.01661254      -1.01289118
Si       2.77544423       0.10840393       2.79969810      -0.21868531      -0.54923116       0.19604935
Si       4.19936522       1.40929603       4.20488524      -0.61101274      -1.29436108       0.64817133
Si       2.68724773       2.63982405      -0.01799475       0.35320677       0.46868720       1.18534305
Si       4.06412856       4.16686287       1.42357242      -0.05375402      -0.52621603      -0.44839900
8
Lattice="5.611000000000001 0.0 0.0 0.0 5.611000000000001 0.0 0.0 0.0 5.611000000000001" Properties=species:S:1:pos:R:3:forces:R:3 config_type=bulk energy=-42.59025717672015 virial="-5.874670945386646 0.6486025678996831 -1.3599320193548075 0.6486025678996831 -6.231445268648092 0.7286866268062099 -1.3599320193548075 0.7286866268062099 -6.058866734605708" label_model=mpa-0 structure_key=34d20fe74fa3a9531450fff8224975aab22cb16ec7dff9de801d0310a689679e pbc="T T T"
Si       0.07687859      -0.07416680      -0.11004611      -0.35379855       0.64874027       1.00881045
Si       1.44108486       1.49404802       1.37346388      -0.34438252      -1.14204017       0.17599928
Si      -0.01432288       2.74521265       2.87187071      -0.21458735       0.31449976      -0.78749068
Si       1.43933258       4.12835146       4.15707903      -0.11079659      -0.32096879       0.58772009
Si       2.74677999      -0.14202708       2.78434882       0.10331876       1.90372359       0.17205176
Si       4.22283427       1.36375886       4.23270407      -0.43871086      -0.36608184      -0.02423936
Si       2.89053568       2.88291095       0.09473944      -0.50480963      -0.85344102      -1.11522139
Si       4.13556571       4.24853730       1.42988377       1.86376675      -0.18443179      -0.01763015
8
Lattice="5.7316666666666665 0.0 0.0 0.0 5.7316666666666665 0.0 0.0 0.0 5.7316666666666665" Properties=species:S:1:pos:R:3:forces:R:3 config_type=bulk energy=-41.740096222126894 virial="-10.46834736558835 -1.6994261704549753 -1.4702339767952028 -1.6994261704549753 -10.963885022161953 -0.15666200878147413 -1.4702339767952028 -0.15666200878147413 -10.560573753441258" label_model=mpa-0 structure_key=c46200fe623dea24af4332f34a9e262ff89124b923432a158d921d0c7fd4ee18 pbc="T T T"
Si       0.02941673      -0.00737742      -0.03561164      -0.29503141       0.26262881       0.03003332
Si       1.55198816       1.44422343       1.28774711      -1.13979437      -0.72548214       1.10697138
Si      -0.12945972       2.86048880       2.70183090       1.59195208      -0.40275508       1.17871735
Si       1.42207066       4.27918664       4.32448665      -0.23912808      -0.17242749      -1.14586013
Si       2.88740249      -0.03622969       2.82472256       0.06487218       0.25802477       0.24032896
Si       4.24402936       1.58564071       4.35577964       1.43667637      -2.28229300      -1.94352579
Si       2.89865328       2.77281703      -0.08575123      -1.03352655       1.73706372       0.70466698
Si       4.29381868       4.17579592       1.33511155      -0.38602022       1.32524040      -0.17133208
8
Lattice="5.852333333333334 0.0 0.0 0.0 5.852333333333334 0.0 0.0 0.0 5.852333333333334" Properties=species:S:1:pos:R:3:forces:R:3 config_type=bulk energy=-40.97975042769492 virial="-15.045597673602863 -0.8168731939994762 1.7717018559241653 -0.8168731939994762 -14.63127044868315 -2.511095392428881 1.7717018559241653 -2.511095392428881 -14.691869949977088" label_model=mpa-0 structure_key=d805e1fe7c2cdba6160471554f79037b8d31bb87979beee88ec1a3e11e0d0d8e pbc="T T T"
Si      -0.00278990       0.02128071       0.01839229       0.82922485      -0.43402626      -0.18385423
Si       1.54298914       1.41061929       1.55211819      -1.15979202       1.19893263      -1.32464283
Si      -0.01849799       3.01744787       2.79374319       1.26846046      -1.14904245       1.30098836
Si       1.53330284       4.43820787       4.30326538      -0.81545217      -0.29933778       0.77580142
Si       2.81665216       0.04346257       2.88808323       2.05630730      -0.77432346       0.62849893
Si       4.52681877       1.42975418       4.33402878      -1.14738662       0.63348628       0.08806279
Si       2.98418928       2.93747363       0.05088405       0.20924918      -0.54940055      -0.72628065
Si       4.47139921       4.31089010       1.45527940      -1.24061098       1.37371158      -0.55857378
8
Lattice="5.973 0.0 0.0 0.0 5.973 0.0 0.0 0.0 5.973" Properties=species:S:1:pos:R:3:forces:R:3 config_type=bulk energy=-39.981556740435366 virial="-18.097475415854714 1.1553670418791833 0.5380652913098836 1.1553670418791833 -17.129804359841916 1.749368657736231 0.5380652913098836 1.749368657736231 -17.748549740965526" label_model=mpa-0 structure_key=6cee5704039d936de4ca8e3d26d30bae74d11883bd23e0631fd471db0b640248 pbc="T T T"
Si       0.02515829      -0.02680174       0.04825569      -0.34080280      -0.16129038      -1.07210024
Si       1.49257525       1.39869394       1.54283070       0.85790154      -0.08317086      -0.14998798
Si       0.07990358       2.90406673       2.87546088      -0.95595287      -0.00010633       0.22203193
Si       1.48945967       4.33916485       4.41626953       0.48675011       0.60963323       0.55179022
Si       3.18071760      -0.10375118       3.03483216      -1.76868995      -0.78865785      -1.09965791
Si       4.32262245       1.42573838       4.33330022       1.85390336       0.82130178       1.36909708
Si       3.01005175       2.94360267       0.02230136      -0.70977902      -0.47769959      -0.64340630
Si       4.50865700       4.41384742       1.35767113       0.57666963       0.07999000       0.82223320
8
Lattice="4.7783999999999995 0.0 0.0 0.0 4.7783999999999995 0.0 0.0 0.0 4.7783999999999995" Properties=species:S:1:pos:R:3:forces:R:3 config_type=bulk energy=-33.35108919284588 virial="56.09518524372765 -5.1430780549273006e-14 1.2587660186444074e-14 -5.1430780549273006e-14 56.09518524372771 1.2178091475385332e-14 1.2587660186444074e-14 1.2178091475385332e-14 56.09518524372765" label_model=mpa-0 structure_key=30189e03a850ac3d29a170d33c74f5665e223b3c7d208096da183c008fe6fd89 pbc="T T T"
Si       0.00000000       0.00000000       0.00000000       0.00000000      -0.00000000      -0.00000000
Si       1.19460000       1.19460000       1.19460000       0.00000000      -0.00000000      -0.00000000
Si       0.00000000       2.38920000       2.38920000      -0.00000000       0.00000000      -0.00000000
Si       1.19460000       3.58380000       3.58380000      -0.00000000       0.00000000       0.00000000
Si       2.38920000       0.00000000       2.38920000       0.00000000       0.00000000       0.00000000
Si       3.58380000       1.19460000       3.58380000      -0.00000000      -0.00000000      -0.00000000
Si       2.38920000       2.38920000       0.00000000       0.00000000      -0.00000000       0.00000000
Si       3.58380000       3.58380000       1.19460000      -0.00000000      -0.00000000       0.00000000
8
Lattice="4.9232000000000005 0.0 0.0 0.0 4.9232000000000005 0.0 0.0 0.0 4.9232000000000005" Properties=species:S:1:pos:R:3:forces:R:3 config_type=bulk energy=-37.618568441829446 virial="39.81725272384002 -2.093543721654746e-15 -1.8950565588184972e-16 -2.093543721654746e-15 39.81725272384003 1.9109418022331785e-14 -1.8950565588184972e-16 1.9109418022331785e-14 39.81725272384002" label_model=mpa-0 structure_key=ebe100b1fe3c1e7d8a7106ce67a4541398827982d91658aa9bb88b69865e3bb1 pbc="T T T"
Si       0.00000000       0.00000000       0.00000000      -0.00000000       0.00000000       0.00000000
Si       1.23080000       1.23080000       1.23080000      -0.00000000      -0.00000000      -0.00000000
Si       0.00000000       2.46160000       2.46160000       0.00000000       0.00000000       0.00000000
Si       1.23080000       3.69240000       3.69240000      -0.00000000      -0.00000000      -0.00000000
Si       2.46160000       0.00000000       2.46160000       0.00000000       0.00000000       0.00000000
Si       3.69240000       1.23080000       3.69240000       0.00000000      -0.00000000       0.00000000
Si       2.46160000       2.46160000       0.00000000       0.00000000       0.00000000       0.00000000
Si       3.69240000       3.69240000       1.23080000       0.00000000       0.00000000      -0.00000000
8
Lattice="5.068 0.0 0.0 0.0 5.068 0.0 0.0 0.0 5.068" Properties=species:S:1:pos:R:3:forces:R:3 config_type=bulk energy=-40.51194171909634 virial="27.05904795412916 1.0561241872094417e-15 1.9405618074768846e-15 1.0561241872094417e-15 27.05904795412913 -5.077832078726913e-15 1.9405618074768846e-15 -5.077832078726913e-15 27.05904795412913" label_model=mpa-0 structure_key=db79073764d12a788e16b74e6c1523e9ebc50608ed17f19be39c7473238247ed pbc="T T T"
Si       0.00000000       0.00000000       0.00000000       0.00000000      -0.00000000       0.00000000
Si       1.26700000       1.26700000       1.26700000      -0.00000000      -0.00000000      -0.00000000
Si       0.00000000       2.53400000       2.53400000       0.00000000      -0.00000000      -0.00000000
Si       1.26700000       3.80100000       3.80100000      -0.00000000       0.00000000       0.00000000
Si       2.53400000       0.00000000       2.53400000      -0.00000000      -0.00000000      -0.00000000
Si       3.80100000       1.26700000       3.80100000      -0.00000000       0.00000000      -0.00000000
Si       2.53400000       2.53400000       0.00000000      -0.00000000      -0.00000000       0.00000000
Si       3.80100000       3.80100000       1.26700000      -0.00000000       0.00000000      -0.00000000
8
Lattice="5.2128000000000005 0.0 0.0 0.0 5.2128000000000005 0.0 0.0 0.0 5.2128000000000005" Properties=species:S:1:pos:R:3:forces:R:3 config_type=bulk energy=-42.30036008243045 virial="15.32783548395426 2.1159084229994914e-14 1.9319826611707954e-14 2.1159084229994914e-14 15.327835483954239 3.253311465600159e-14 1.9319826611707954e-14 3.253311465600159e-14 15.327835483954232" label_model=mpa-0 structure_key=f7eaaea0d0b30561cd1f13aaeae3b95d86adda76eac0330a21a0010696badd56 pbc="T T T"
Si       0.00000000       0.00000000       0.00000000      -0.00000000      -0.00000000      -0.00000000
Si       1.30320000       1.30320000       1.30320000      -0.00000000      -0.00000000      -0.00000000
Si       0.00000000       2.60640000       2.60640000       0.00000000      -0.00000000      -0.00000000
Si       1.30320000       3.90960000       3.90960000      -0.00000000       0.00000000       0.00000000
Si       2.60640000       0.00000000       2.60640000      -0.00000000       0.00000000      -0.00000000
Si       3.90960000       1.30320000       3.90960000       0.00000000      -0.00000000       0.00000000
Si       2.60640000       2.60640000       0.00000000      -0.00000000      -0.00000000       0.00000000
Si       3.90960000       3.90960000       1.30320000       0.00000000       0.00000000      -0.00000000
8
Lattice="5.3576 0.0 0.0 0.0 5.3576 0.0 0.0 0.0 5.3576" Properties=species:S:1:pos:R:3:forces:R:3 config_type=bulk energy=-43.14766910817024 virial="5.733432633826997 5.711419932947097e-14 1.8585789688310505e-14 5.711419932947097e-14 5.733432633826978 2.8148846631759983e-14 1.8585789688310505e-14 2.8148846631759983e-14 5.733432633826983" label_model=mpa-0 structure_key=7cb329397218b191c8779622b21e05b237ee9b1e975151b2449b66c7b602b422 pbc="T T T"
Si       0.00000000       0.00000000       0.00000000       0.00000000       0.00000000       0.00000000
Si       1.33940000       1.33940000       1.33940000      -0.00000000      -0.00000000      -0.00000000
Si       0.00000000       2.67880000       2.67880000       0.00000000       0.00000000       0.00000000
Si       1.33940000       4.01820000       4.01820000      -0.00000000      -0.00000000      -0.00000000
Si       2.67880000       0.00000000       2.67880000      -0.00000000       0.00000000       0.00000000
Si       4.01820000       1.33940000       4.01820000      -0.00000000      -0.00000000      -0.00000000
Si       2.67880000       2.67880000       0.00000000       0.00000000      -0.00000000       0.00000000
Si       4.01820000       4.01820000       1.33940000      -0.00000000      -0.00000000      -0.00000000
8
Lattice="5.5024 0.0 0.0 0.0 5.5024 0.0 0.0 0.0 5.5024" Properties=species:S:1:pos:R:3:forces:R:3 config_type=bulk energy=-43.30209953282972 virial="-1.653262578091433 4.699193770780217e-15 1.8802491036048e-14 4.699193770780217e-15 -1.6532625780914318 1.3440456348480148e-14 1.8802491036048e-14 1.3440456348480148e-14 -1.6532625780914363" label_model=mpa-0 structure_key=12380d46a93444411ba5f9057987c6ab074e23c33c270db6da09df96244181dd pbc="T T T"
Si       0.00000000       0.00000000       0.00000000      -0.00000000      -0.00000000      -0.00000000
Si       1.37560000       1.37560000       1.37560000      -0.00000000      -0.00000000      -0.00000000
Si       0.00000000       2.75120000       2.75120000      -0.00000000      -0.00000000      -0.00000000
Si       1.37560000       4.12680000       4.12680000       0.00000000       0.00000000       0.00000000
Si       2.75120000       0.00000000       2.75120000      -0.00000000      -0.00000000      -0.00000000
Si       4.12680000       1.37560000       4.12680000       0.00000000       0.00000000       0.00000000
Si       2.75120000       2.75120000       0.00000000      -0.00000000      -0.00000000      -0.00000000
Si       4.12680000       4.12680000       1.37560000       0.00000000       0.00000000       0.00000000
8
Lattice="5.6472 0.0 0.0 0.0 5.6472 0.0 0.0 0.0 5.6472" Properties=species:S:1:pos:R:3:forces:R:3 config_type=bulk energy=-42.92429530578161 virial="-7.9756781129480085 -2.257041167758621e-15 -2.9810761076153964e-15 -2.257041167758621e-15 -7.9756781129480085 -2.1655839410640133e-15 -2.9810761076153964e-15 -2.1655839410640133e-15 -7.975678112948012" label_model=mpa-0 structure_key=2ea6436a91a95f734636a43a73f592ceaa6e47cc29a277072b1f0117e992a311 pbc="T T T"
Si       0.00000000       0.00000000       0.00000000       0.00000000       0.00000000       0.00000000
Si       1.41180000       1.41180000       1.41180000       0.00000000       0.00000000       0.00000000
Si       0.00000000       2.82360000       2.82360000       0.00000000       0.00000000       0.00000000
Si       1.41180000       4.23540000       4.23540000       0.00000000      -0.00000000      -0.00000000
Si       2.82360000       0.00000000       2.82360000       0.00000000       0.00000000       0.00000000
Si       4.23540000       1.41180000       4.23540000      -0.00000000       0.00000000      -0.00000000
Si       2.82360000       2.82360000       0.00000000       0.00000000       0.00000000       0.00000000
Si       4.23540000       4.23540000       1.41180000      -0.00000000      -0.00000000       0.00000000
8
Lattice="5.792000000000001 0.0 0.0 0.0 5.792000000000001 0.0 0.0 0.0 5.792000000000001" Properties=species:S:1:pos:R:3:forces:R:3 config_type=bulk energy=-42.099697036782004 virial="-13.543923668132361 -3.211430735052291e-15 -1.6014996780807834e-15 -3.211430735052291e-15 -13.543923668132344 -1.5700034341846525e-15 -1.6014996780807834e-15 -1.5700034341846525e-15 -13.543923668132354" label_model=mpa-0 structure_key=ac342f8a7f1be09144e7982d19d70df3f5373d08502998b8829c0d7645cc98cd pbc="T T T"
Si       0.00000000       0.00000000       0.00000000      -0.00000000       0.00000000       0.00000000
Si       1.44800000       1.44800000       1.44800000      -0.00000000      -0.00000000      -0.00000000
Si       0.00000000       2.89600000       2.89600000      -0.00000000      -0.00000000      -0.00000000
Si       1.44800000       4.34400000       4.34400000       0.00000000       0.00000000       0.00000000
Si       2.89600000       0.00000000       2.89600000       0.00000000      -0.00000000      -0.00000000
Si       4.34400000       1.44800000       4.34400000       0.00000000      -0.00000000       0.00000000
Si       2.89600000       2.89600000       0.00000000       0.00000000      -0.00000000       0.00000000
Si       4.34400000       4.34400000       1.44800000       0.00000000       0.00000000      -0.00000000
8
Lattice="5.936800000000001 0.0 0.0 0.0 5.936800000000001 0.0 0.0 0.0 5.936800000000001" Properties=species:S:1:pos:R:3:forces:R:3 config_type=bulk energy=-40.93680934670939 virial="-17.666452293670936 2.219256838522672e-15 -3.5555328774549635e-16 2.219256838522672e-15 -17.666452293670908 -1.8554092300165914e-16 -3.5555328774549635e-16 -1.8554092300165914e-16 -17.666452293670872" label_model=mpa-0 structure_key=2522e55ccad7e5dd95f954d2c6930015756244d0d0e57f10b2cf4c1d3f56c6f1 pbc="T T T"
Si       0.00000000       0.00000000       0.00000000       0.00000000      -0.00000000      -0.00000000
Si       1.48420000       1.48420000       1.48420000      -0.00000000       0.00000000      -0.00000000
Si       0.00000000       2.96840000       2.96840000       0.00000000      -0.00000000      -0.00000000
Si       1.48420000       4.45260000       4.45260000      -0.00000000       0.00000000       0.00000000
Si       2.96840000       0.00000000       2.96840000      -0.00000000      -0.00000000      -0.00000000
Si       4.45260000       1.48420000       4.45260000       0.00000000      -0.00000000       0.00000000
Si       2.96840000       2.96840000       0.00000000      -0.00000000      -0.00000000      -0.00000000
Si       4.45260000       4.45260000       1.48420000       0.00000000       0.00000000      -0.00000000
8
Lattice="6.0816 0.0 0.0 0.0 6.0816 0.0 0.0 0.0 6.0816" Properties=species:S:1:pos:R:3:forces:R:3 config_type=bulk energy=-39.53944853746911 virial="-20.794079498582924 -2.31735021796742e-15 -1.6916096128027928e-15 -2.31735021796742e-15 -20.794079498582935 -2.282074008930212e-15 -1.6916096128027928e-15 -2.282074008930212e-15 -20.794079498582935" label_model=mpa-0 structure_key=1b17ddf89b038647961324efa5ed9e507d4cc64f9eea802e0a3d4f383f17d641 pbc="T T T"
Si       0.00000000       0.00000000       0.00000000      -0.00000000      -0.00000000      -0.00000000
Si       1.52040000       1.52040000       1.52040000       0.00000000       0.00000000      -0.00000000
Si       0.00000000       3.04080000       3.04080000      -0.00000000      -0.00000000      -0.00000000
Si       1.52040000       4.56120000       4.56120000       0.00000000       0.00000000       0.00000000
Si       3.04080000       0.00000000       3.04080000      -0.00000000      -0.00000000      -0.00000000
Si       4.56120000       1.52040000       4.56120000       0.00000000      -0.00000000       0.00000000
Si       3.04080000       3.04080000       0.00000000      -0.00000000      -0.00000000      -0.00000000
Si       4.56120000       4.56120000       1.52040000       0.00000000       0.00000000      -0.00000000
8
Lattice="4.7783999999999995 0.0 0.0 0.0 4.7783999999999995 0.0 0.0 0.0 4.7783999999999995" Properties=species:S:1:pos:R:3:forces:R:3 config_type=bulk energy=-33.194469692525054 virial="56.263698782253535 1.1598281109576651 -1.2564658431331972 1.1598281109576651 56.13058330032775 -1.4664249992566465 -1.2564658431331972 -1.4664249992566465 56.449391154772" label_model=mpa-0 structure_key=d6f066ea0cc9008d0ea4fed92b86b2cd1854eb81b543397a519d29a3bbfd95cf pbc="T T T"
Si      -0.00863437      -0.02785748       0.00623141      -0.25429902       0.56621844       0.33670865
Si       1.19433530       1.22359415       1.20056305      -0.25579808      -0.40646169      -1.08644544
Si      -0.01659792       2.35727683       2.40146876       1.25943925       0.52419706       0.23770937
Si       1.18824806       3.58232007       3.57162738       0.18191034      -0.78887814       0.56774871
Si       2.34920254       0.01816481       2.39885960       0.97758882      -0.53430854      -0.68818630
Si       3.58823757       1.20788058       3.55888386      -0.31571458      -1.48309396       0.98390325
Si       2.42857758       2.38282702       0.00719536      -0.89775478       0.29270636      -0.62378306
Si       3.59872342       3.52930282       1.22810758      -0.69537195       1.82962047       0.27234480
8
Lattice="4.9232000000000005 0.0 0.0 0.0 4.9232000000000005 0.0 0.0 0.0 4.9232000000000005" Properties=species:S:1:pos:R:3:forces:R:3 config_type=bulk energy=-37.52086791286033 virial="39.90913230771283 1.0369638133130312 0.2529937213674449 1.0369638133130312 40.05265606454718 2.307120264270723 0.2529937213674449 2.307120264270723 39.93727871762095" label_model=mpa-0 structure_key=7b5ba8b79a1dfbf1c7d1349e6c05305bf69b1fd28d31cf07e127da1d4f347806 pbc="T T T"
Si       0.00818480       0.00612626      -0.01970961      -0.54538254       0.46889294       1.00997269
Si       1.23251004       1.22155335       1.24256409      -0.09134770       0.35954685      -0.28995681
Si       0.01673065       2.45611466       2.50029492      -0.61482192       0.08232104      -1.13400727
Si       1.18192185       3.72108814       3.69189109       1.37444012      -0.40916099      -0.02342550
Si       2.46011907       0.00660115       2.47057364       0.00234595      -0.52813585      -0.07280857
Si       3.69258366       1.22039264       3.68422663      -0.33836865       0.36460812       0.38162769
Si       2.45937678       2.47676808      -0.00128277      -0.49972547      -0.25180782      -0.51177239
Si       3.67978853       3.69727190       1.21379577       0.71286021      -0.08626430       0.64037017
8
Lattice="5.068 0.0 0.0 0.0 5.068 0.0 0.0 0.0 5.068" Properties=species:S:1:pos:R:3:forces:R:3 config_type=bulk energy=-40.23439019884228 virial="27.526331108042065 1.544440266856768 1.5641103875315672 1.544440266856768 27.426244736608677 -3.003378317477734 1.5641103875315672 -3.003378317477734 27.30346849168049" label_model=mpa-0 structure_key=8c27a3c861ff189231a2a303bcb65896845edf1b317a6f804d729584b30cec49 pbc="T T T"
Si      -0.02279584       0.01745016      -0.03373523       1.71522697      -0.85259487       1.03225316
Si       1.28686947       1.31152185       1.24559026      -0.69475591      -1.41484180       0.82204537
Si       0.00061911       2.55955470       2.52237070      -0.84425382      -1.05331423      -0.03168527
Si       1.25618352       3.77882721       3.75479305      -0.21837546       0.34512044       1.04051736
Si       2.51625463      -0.01390002       2.57456440       0.65345588       0.50370906      -1.11782587
Si       3.82245750       1.22926391       3.84901245      -1.12933218       1.71608441      -1.19544502
Si       2.48818158       2.54984400       0.01664700       1.00169496       0.21391436      -1.08841724
Si       3.81430557       3.79222687       1.22679613      -0.48366044       0.54192264       0.53855751
8
Lattice="5.2128000000000005 0.0 0.0 0.0 5.2128000000000005 0.0 0.0 0.0 5.2128000000000005" Properties=species:S:1:pos:R:3:forces:R:3 config_type=bulk energy=-42.21108862685285 virial="15.518807286676667 0.18999866891975664 0.14797496706786809 0.18999866891975664 15.539989965523887 -0.619816284535189 0.14797496706786809 -0.619816284535189 15.500052294440414" label_model=mpa-0 structure_key=b6359a0f900c5e0c202377a300383739ed3329e2461f2581a2584644e1733378 pbc="T T T"
Si      -0.00832629      -0.01278042       0.00561206      -0.24328272       0.39004166       0.09574895
Si       1.32071008       1.34330379       1.26456061      -0.61814487      -0.73808607       0.67041445
Si      -0.00325717       2.62947565       2.58745890       0.20848914      -0.14115320       0.38056962
Si       1.31806089       3.91884066       3.94790258      -0.47174878       0.23494889      -0.88602629
Si       2.60374880       0.01366197       2.60567220      -0.31703841      -0.15026230      -0.28590226
Si       3.88721286       1.30570660       3.89422911       0.43148422       0.24011189       0.26990844
Si       2.56909148       2.62032940      -0.00380540       0.88328667      -0.23570594      -0.38729136
Si       3.87769685       3.88710805       1.29114500       0.12695474       0.40010507       0.14257845
8
Lattice="5.3576 0.0 0.0 0.0 5.3576 0.0 0.0 0.0 5.3576" Properties=species:S:1:pos:R:3:forces:R:3 config_type=bulk energy=-43.093344122232956 virial="5.892835777634522 0.013174096367714154 0.29849569948090676 0.013174096367714154 5.914683778206516 0.11247502983880114 0.29849569948090676 0.11247502983880114 5.918174042897243" label_model=mpa-0 structure_key=aaec8997cdf0a87336dba4981a3e575d9f42e81426662e65ec1c08273b9a59c9 pbc="T T T"
Si       0.02807120      -0.02246944       0.00362407      -0.21222518       0.25490827      -0.03181295
Si       1.34683370       1.34602906       1.35173046      -0.07986279      -0.09292343      -0.08260075
Si      -0.01439084       2.68665947       2.64934825       0.11567453      -0.18609669       0.63704992
Si       1.37202446       4.03220434       4.01398598      -0.37357947      -0.35868818      -0.11739552
Si       2.68524470       0.01716521       2.70299243      -0.01579069      -0.26812998      -0.53730013
Si       3.98192738       1.31633606       4.02679318       0.72016492       0.37980985       0.19820264
Si       2.67669813       2.68542487       0.01061098      -0.00727151      -0.10022137      -0.07210152
Si       4.02279809       4.00661614       1.33607423      -0.14710981       0.37134154       0.00595831
8
Lattice="5.5024 0.0 0.0 0.0 5.5024 0.0 0.0 0.0 5.5024" Properties=species:S:1:pos:R:3:forces:R:3 config_type=bulk energy=-43.27875111997274 virial="-1.6513996939134998 -0.14188116451140423 -0.1538262501707859 -0.14188116451140423 -1.6308090339336534 -0.06224858055197212 -0.1538262501707859 -0.06224858055197212 -1.6164165429371733" label_model=mpa-0 structure_key=a33789afc22cd8ffa82d108a147a5c7f8ffcd15c6c41f95ebff5f9fc5e9af6bb pbc="T T T"
Si       0.03035422      -0.02059767       0.00804995      -0.25403907       0.00574332       0.01024522
Si       1.34883903       1.36069408       1.38986191       0.12434700       0.16672621       0.05868761
Si      -0.03583756       2.74364337       2.77314025       0.28430712       0.20314434      -0.15034741
Si       1.39121269       4.11523484       4.14007339      -0.05223885      -0.00019041      -0.21259616
Si       2.75876939       0.02710098       2.76483286      -0.05400726      -0.14517500       0.04662993
Si       4.14720381       1.38477817       4.14858381      -0.11648948      -0.23858532       0.07483734
Si       2.73672027       2.72486434      -0.00449869       0.09465030       0.13955265       0.27754964
Si       4.11339464       4.13907822       1.38834727      -0.02652976      -0.13121579      -0.10500617
8
Lattice="5.6472 0.0 0.0 0.0 5.6472 0.0 0.0 0.0 5.6472" Properties=species:S:1:pos:R:3:forces:R:3 config_type=bulk energy=-42.897746547821704 virial="-7.962304954024405 0.08032938416052715 -0.24878826761582318 0.08032938416052715 -7.985463443761048 0.09246571907456147 -0.24878826761582318 0.09246571907456147 -7.973415673025201" label_model=mpa-0 structure_key=001cc77957e3197222963504ccb9e0fb35e6d5c384b324eb66dbb440fc462bde pbc="T T T"
Si       0.01921965      -0.01854170      -0.02751153      -0.07703997       0.15016809       0.22383322
Si       1.42138372       1.43462451       1.40447847      -0.07531620      -0.26205021       0.03532224
Si      -0.00358072       2.80852816       2.84019268      -0.04929740       0.06916787      -0.17283997
Si       1.42094565       4.21542537       4.22260726      -0.02598231      -0.03892719       0.11514817
Si       2.80892000      -0.03550677       2.81831221       0.05200087       0.39305101       0.02887491
Si       4.23904607       1.40205221       4.24151352      -0.08421193      -0.08461956      -0.01483592
Si       2.84485892       2.84295274       0.02368486      -0.08849366      -0.16225465      -0.20946114
Si       4.21722893       4.24547182       1.41858344       0.34834060      -0.06453537      -0.00604151
8
Lattice="5.792000000000001 0.0 0.0 0.0 5.792000000000001 0.0 0.0 0.0 5.792000000000001" Properties=species:S:1:pos:R:3:forces:R:3 config_type=bulk energy=-42.06003727952229 virial="-13.532544882771859 -0.19405052747589674 -0.18183938973120448 -0.19405052747589674 -13.54784681854184 -0.09306938215943304 -0.18183938973120448 -0.09306938215943304 -13.538146297501916" label_model=mpa-0 structure_key=f44baf8c3753169069aa0e3e902fd10a07afe62bf2322252d4e7171bed6d94f5 pbc="T T T"
Si       0.00735418      -0.00184435      -0.00890291      -0.04683056       0.05417458       0.00522857
Si       1.47776787       1.45082669       1.41170761      -0.24836623      -0.14611236       0.22035967
Si      -0.03236493       2.89466387       2.85499939       0.34589350      -0.01818400       0.23002667
Si       1.44528850       4.33910916       4.35043416      -0.07156586      -0.03617110      -0.27891968
Si       2.90139229      -0.00905742       2.88572231       0.01322399       0.05929158       0.06415342
Si       4.33031984       1.48618101       4.35825741       0.16900972      -0.43679395      -0.33139216
Si       2.90420499       2.87274592      -0.02143781      -0.11841391       0.26951281       0.07866173
Si       4.34276717       4.31326148       1.42354872      -0.04295067       0.25428243       0.01188178
8
Lattice="5.936800000000001 0.0 0.0 0.0 5.936800000000001 0.0 0.0 0.0 5.936800000000001" Properties=species:S:1:pos:R:3:forces:R:3 config_type=bulk energy=-40.89956826268825 virial="-17.65315384249436 -0.05025252733335895 0.25327867717185004 -0.05025252733335895 -17.630016673807308 -0.38813164479580714 0.25327867717185004 -0.38813164479580714 -17.629496522995062" label_model=mpa-0 structure_key=069bae795b2541f39a449cf7e36af4e720fc53522d65839eedfad0f363565d0b pbc="T T T"
Si      -0.00069747       0.00532018       0.00459807       0.20837083      -0.11128796      -0.05716468
Si       1.50417645       1.47108399       1.50645871      -0.22351865       0.21940681      -0.24932144
Si      -0.00462450       2.99122030       2.93529413       0.24756017      -0.22461871       0.24868269
Si       1.50175488       4.46483947       4.43110384      -0.18964855      -0.03599474       0.16795340
Si       2.94102137       0.01086564       2.95887914       0.44283799      -0.15498468       0.08817796
Si       4.48699219       1.47586771       4.43879469      -0.29364156       0.16051267       0.04028798
Si       2.98290565       2.97122674       0.01272101       0.07734352      -0.13400156      -0.17098137
Si       4.47313730       4.43301002       1.48224902      -0.26930376       0.28096818      -0.06763456
8
Lattice="6.0816 0.0 0.0 0.0 6.0816 0.0 0.0 0.0 6.0816" Properties=species:S:1:pos:R:3:forces:R:3 config_type=bulk energy=-39.50486179226991 virial="-20.73723263534088 0.17397153725093323 0.06774896107766681 0.17397153725093323 -20.705028288672413 0.2611447245643298 0.06774896107766681 0.2611447245643298 -20.723405166647918" label_model=mpa-0 structure_key=e7f9ef8c8f3e3e0327ed893bc90f0d5cb609ef1a8a00cb43b5035bb42283f475 pbc="T T T"
Si       0.00628957      -0.00670044       0.01206392      -0.11347406      -0.04521911      -0.25888509
Si       1.52023131       1.49676099       1.53279517       0.20070470       0.00433530      -0.01089544
Si       0.01997589       3.02019168       3.01304022      -0.22469210      -0.02008373       0.02669217
Si       1.51945242       4.52605371       4.54532988       0.13129584       0.13476380       0.14193033
Si       3.08935440      -0.02593779       3.05288304      -0.38490680      -0.07333772      -0.20678815
Si       4.52191811       1.50352209       4.52458756       0.41250914       0.07717420       0.27536013
Si       3.04668794       3.03007567       0.00557534      -0.17445914      -0.09555015      -0.16001065
Si       4.56842675       4.54472436       1.48650528       0.15302242       0.01791742       0.19259669
8
Lattice="4.7783999999999995 0.0 0.0 0.0 4.7783999999999995 0.0 0.0 0.0 4.7783999999999995" Properties=species:S:1:pos:R:3:forces:R:3 config_type=bulk energy=-32.71683907726006 virial="56.863431392403406 2.2606719261967503 -2.5955333388795037 2.2606719261967503 56.32665186417603 -3.1572270014650528 -2.5955333388795037 -3.1572270014650528 57.53606588885752" label_model=mpa-0 structure_key=021c582c2ad32891f72acf451c45ce1977806968ae5311c778deb121b07e0282 pbc="T T T"
Si      -0.01726874      -0.05571496       0.01246283      -0.47155042       1.07560144       0.63013250
Si       1.19407060       1.25258831       1.20652611      -0.40317301      -0.74066046      -2.15141583
Si      -0.03319584       2.32535366       2.41373751       2.87422261       1.10690881       0.41791922
Si       1.18189612       3.58084013       3.55945476       0.31328862      -1.52486280       1.07362056
Si       2.30920508       0.03632963       2.40851920       1.84545750      -0.96347606      -1.18256977
Si       3.59267514       1.22116117       3.53396773      -0.96394481      -3.14236995       2.12498668
Si       2.46795516       2.37645404       0.01439072      -1.77323462       0.50049662      -1.20365642
Si       3.61364684       3.47480564       1.26161515      -1.42106587       3.68836241       0.29098306
8
Lattice="4.9232000000000005 0.0 0.0 0.0 4.9232000000000005 0.0 0.0 0.0 4.9232000000000005" Properties=species:S:1:pos:R:3:forces:R:3 config_type=bulk energy=-37.22752385125261 virial="40.15521852933198 1.86292403185683 0.5113661544960795 1.86292403185683 40.763778821676205 4.69115437938818 0.5113661544960795 4.69115437938818 40.293577326373" label_model=mpa-0 structure_key=638f772b5fa5d02bcecc34726c71f246764a565fdac6e81beb492eaea821c175 pbc="T T T"
Si       0.01636961       0.01225252      -0.03941922      -1.17439628       1.09798354       2.18683032
Si       1.23422008       1.21230670       1.25432817      -0.20377016       0.71299453      -0.57582641
Si       0.03346130       2.45062931       2.53898984      -1.12734346      -0.02765992      -2.19915501
Si       1.13304370       3.74977629       3.69138217       2.83859830      -0.85604404      -0.24478303
Si       2.45863814       0.01320230       2.47954727      -0.01759083      -1.07041127      -0.14789253
Si       3.69276732       1.20998529       3.67605327      -0.66635943       0.73642056       0.74054222
Si       2.45715355       2.49193616      -0.00256553      -0.98901521      -0.53747643      -0.98722176
Si       3.66717706       3.70214380       1.19679153       1.33987706      -0.05580696       1.22750619
8
Lattice="5.068 0.0 0.0 0.0 5.068 0.0 0.0 0.0 5.068" Properties=species:S:1:pos:R:3:forces:R:3 config_type=bulk energy=-39.34953358805061 virial="28.965411722243235 2.9396008874024373 3.2281619472858907 2.9396008874024373 28.63417118323882 -6.358035476564742 3.2281619472858907 -6.358035476564742 28.06247413335983" label_model=mpa-0 structure_key=61b94fe58f15c5b2d740b9c5ac19561a4475302fba79eee5872c43a2a9140dc9 pbc="T T T"
Si      -0.04559168       0.03490032      -0.06747047       3.78911594      -2.17598317       2.40054459
Si       1.30673894       1.35604370       1.22418052      -1.58166804      -2.97598516       1.90795493
Si       0.00123822       2.58510940       2.51074139      -1.70237457      -2.10014494      -0.23088203
Si       1.24536704       3.75665441       3.70858609      -0.29354207       0.63590726       2.16261805
Si       2.49850927      -0.02780004       2.61512880       1.36620842       1.15923602      -2.14284941
Si       3.84391500       1.19152783       3.89702490      -2.81711014       3.76873464      -2.78931819
Si       2.44236316       2.56568800       0.03329400       2.10847780       0.77244350      -2.28881708
Si       3.82761114       3.78345374       1.18659225      -0.86910734       0.91579185       0.98074913
8
Lattice="5.2128000000000005 0.0 0.0 0.0 5.2128000000000005 0.0 0.0 0.0 5.2128000000000005" Properties=species:S:1:pos:R:3:forces:R:3 config_type=bulk energy=-41.927003433013596 virial="16.036107533866435 0.4255215724253291 0.2893761594316225 0.4255215724253291 16.154330596750913 -1.4798295328072166 0.2893761594316225 -1.4798295328072166 15.979509770681732" label_model=mpa-0 structure_key=965a899f45a70db50e42a2b036d855723da09b63d7fa9b9835981cfca32e12cc pbc="T T T"
Si      -0.01665257      -0.02556085       0.01122412      -0.48257656       0.77573105       0.19725751
Si       1.33822015       1.38340759       1.22592123      -1.38776562      -1.64804818       1.49819905
Si      -0.00651433       2.65255130       2.56851780       0.40879261      -0.28782007       0.73374365
Si       1.33292178       3.92808133       3.98620516      -0.98651136       0.61879665      -1.85730147
Si       2.60109759       0.02732393       2.60494441      -0.63819100      -0.34104607      -0.59529230
Si       3.86482573       1.30821320       3.87885822       0.86177084       0.51355574       0.56431076
Si       2.53178296       2.63425880      -0.00761080       1.95642886      -0.43131125      -0.84366285
Si       3.84579370       3.86461610       1.27909000       0.26805222       0.80014213       0.30274565
8
Lattice="5.3576 0.0 0.0 0.0 5.3576 0.0 0.0 0.0 5.3576" Properties=species:S:1:pos:R:3:forces:R:3 config_type=bulk energy=-42.92305875462781 virial="6.339296558748862 0.13713423564842478 0.7491980296974792 0.13713423564842478 6.426881173062573 0.2742069991668576 0.7491980296974792 0.2742069991668576 6.4501739677833205" label_model=mpa-0 structure_key=5d9ef38c38c2df0b7a8551ad1b33170cf5d3ad39e60d9a10019a704ebb020faf pbc="T T T"
Si       0.05614241      -0.04493888       0.00724814      -0.44100480       0.51069700      -0.04148485
Si       1.35426740       1.35265812       1.36406092      -0.15471718      -0.19877667      -0.16672295
Si      -0.02878168       2.69451894       2.61989650       0.28797906      -0.42249496       1.29985997
Si       1.40464893       4.04620868       4.00977196      -0.75866414      -0.73983171      -0.20998298
Si       2.69168941       0.03433042       2.72718486      -0.11541757      -0.60420663      -1.22361253
Si       3.94565475       1.29327211       4.03538637       1.53051047       0.85818746       0.52854254
Si       2.67459625       2.69204974       0.02122197      -0.01997502      -0.20785479      -0.15345380
Si       4.02739619       3.99503229       1.33274846      -0.32871082       0.80428030      -0.03314538
8
Lattice="5.5024 0.0 0.0 0.0 5.5024 0.0 0.0 0.0 5.5024" Properties=species:S:1:pos:R:3:forces:R:3 config_type=bulk energy=-43.207486937404596 virial="-1.650652209475266 -0.2739911788678128 -0.34268631540479116 -0.2739911788678128 -1.556397787508028 -0.15755259258594698 -0.34268631540479116 -0.15755259258594698 -1.5003366934220732" label_model=mpa-0 structure_key=f9f6b7c2de41172d70920a66e6f522a3e51c1a0518bb52fda263318cbb4d4da0 pbc="T T T"
Si       0.06070845      -0.04119534       0.01609991      -0.52420717       0.00502413       0.01893705
Si       1.32207807       1.34578816       1.40412381       0.25475040       0.34264131       0.13218968
Si      -0.07167512       2.73608673       2.79508051       0.59542284       0.44440838      -0.34133604
Si       1.40682538       4.10366968       4.15334679      -0.10717247       0.00306959      -0.44036506
Si       2.76633878       0.05420196       2.77846572      -0.10733125      -0.28558408       0.09178375
Si       4.16760761       1.39395635       4.17036762      -0.25163329      -0.51636034       0.18994575
Si       2.72224053       2.69852869      -0.00899738       0.18285826       0.26687008       0.55903068
Si       4.09998928       4.15135643       1.40109454      -0.04268732      -0.26006907      -0.21018581
8
Lattice="5.6472 0.0 0.0 0.0 5.6472 0.0 0.0 0.0 5.6472" Properties=species:S:1:pos:R:3:forces:R:3 config_type=bulk energy=-42.81596650894342 virial="-7.907683190074739 0.19336133030864172 -0.5261306935455833 0.19336133030864172 -7.9989314359470205 0.21924538745590103 -0.5261306935455833 0.21924538745590103 -7.951278989414853" label_model=mpa-0 structure_key=f3f0d0d8030106ed339ae019d171edf868c0067463084c8681513c5622deb80d pbc="T T T"
Si       0.03843930      -0.03708340      -0.05502306      -0.16175579       0.30775131       0.45838169
Si       1.43096743       1.45744901       1.39715694      -0.15342215      -0.53464792       0.07517458
Si      -0.00716144       2.79345633       2.85678536      -0.09933843       0.14274585      -0.35425110
Si       1.43009129       4.19545073       4.20981452      -0.05235506      -0.09423179       0.24274575
Si       2.79424000      -0.07101354       2.81302441       0.09337101       0.81805496       0.06153546
Si       4.24269213       1.39230443       4.24762704      -0.17456152      -0.17186728      -0.02580146
Si       2.86611784       2.86230547       0.04736972      -0.19303608      -0.34326919      -0.44399947
Si       4.19905786       4.25554365       1.42536689       0.74109803      -0.12453594      -0.01378545
8
Lattice="5.792000000000001 0.0 0.0 0.0 5.792000000000001 0.0 0.0 0.0 5.792000000000001" Properties=species:S:1:pos:R:3:forces:R:3 config_type=bulk energy=-41.93672687607604 virial="-13.458668803055348 -0.4738019909665128 -0.4269229114441751 -0.4738019909665128 -13.531164683984432 -0.16634816547230027 -0.4269229114441751 -0.16634816547230027 -13.481030636058328" label_model=mpa-0 structure_key=64d68c89bb2497277b6443565e356487f0b0089e4736303dfcb11df9e6b1a8a4 pbc="T T T"
Si       0.01470837      -0.00368871      -0.01780582      -0.10205945       0.11304657       0.01209621
Si       1.50753575       1.45365338       1.37541522      -0.50915941      -0.30557537       0.45786980
Si      -0.06472986       2.89332773       2.81399878       0.70356778      -0.06653492       0.48229006
Si       1.44257700       4.33421832       4.35686833      -0.13962572      -0.07259523      -0.56002494
Si       2.90678458      -0.01811484       2.87544462       0.02672292       0.12349733       0.12622954
Si       4.31663968       1.52436202       4.37251482       0.40402675      -0.91510434      -0.71342746
Si       2.91240998       2.84949185      -0.04287561      -0.28146338       0.59142931       0.18911348
Si       4.34153434       4.28252296       1.39909744      -0.10200948       0.53183664       0.00585331
8
Lattice="5.936800000000001 0.0 0.0 0.0 5.936800000000001 0.0 0.0 0.0 5.936800000000001" Properties=species:S:1:pos:R:3:forces:R:3 config_type=bulk energy=-40.78663686061627 virial="-17.59004982518138 -0.15304274114825936 0.5552792027723394 -0.15304274114825936 -17.498873653336243 -0.8281369216123181 0.5552792027723394 -0.8281369216123181 -17.499082734132205" label_model=mpa-0 structure_key=08ea262451024dbd424386a4b910b991191d4d0fb66c35c92311066aeea54840 pbc="T T T"
Si      -0.00139495       0.01064035       0.00919614       0.41274577      -0.22013726      -0.10872847
Si       1.52415290       1.45796798       1.52871743      -0.46431740       0.45864249      -0.51475466
Si      -0.00924899       3.01404060       2.90218826       0.51333638      -0.46463055       0.51326032
Si       1.51930975       4.47707893       4.40960769      -0.38290767      -0.07905604       0.33561409
Si       2.91364275       0.02173128       2.94935828       0.88984611      -0.31545686       0.19863281
Si       4.52138439       1.46753542       4.42498939      -0.57710103       0.31609855       0.07266961
Si       2.99741131       2.97405348       0.02544203       0.14844776      -0.26588139      -0.33659115
Si       4.49367460       4.41342005       1.48029803      -0.54004992       0.57042108      -0.16010255
8
Lattice="6.0816 0.0 0.0 0.0 6.0816 0.0 0.0 0.0 6.0816" Properties=species:S:1:pos:R:3:forces:R:3 config_type=bulk energy=-39.40125872979208 virial="-20.576160749444476 0.3598908240433641 0.14845378045633617 0.3598908240433641 -20.430822990979767 0.5405214694255953 0.14845378045633617 0.5405214694255953 -20.51322766471083" label_model=mpa-0 structure_key=5e8da8e1c3ce50d6fb924df350636da404b39d8117dd70ebd5145586c0abec4e pbc="T T T"
Si       0.01257915      -0.01340087       0.02412785      -0.21175706      -0.08871065      -0.49973255
Si       1.52006262       1.47312197       1.54519035       0.39339972       0.00155150      -0.03034948
Si       0.03995179       2.99958336       2.98528044      -0.44182171      -0.03239344       0.05860929
Si       1.51850484       4.49090743       4.52945977       0.25770487       0.26538765       0.27362462
Si       3.13790880      -0.05187559       3.06496608      -0.77103044      -0.18095672      -0.42680003
Si       4.48263622       1.48664419       4.48797511       0.81899297       0.19267019       0.55545317
Si       3.05257588       3.01935134       0.01115068      -0.34246368      -0.19479294      -0.31443895
Si       4.57565350       4.52824871       1.45261056       0.29697534       0.03724442       0.38363393
8
Lattice="4.7783999999999995 0.0 0.0 0.0 4.7783999999999995 0.0 0.0 0.0 4.7783999999999995" Properties=species:S:1:pos:R:3:forces:R:3 config_type=bulk energy=-31.90304212855506 virial="58.046616524687806 3.290306215522483 -4.0325071671588555 3.290306215522483 56.82277953435891 -5.157527398155922 -4.0325071671588555 -5.157527398155922 59.40569048327805" label_model=mpa-0 structure_key=5d0964459c73847117e3b3ce25b5a649056630fab24ee1abc0f9343d6ffd811c pbc="T T T"
Si      -0.02590311      -0.08357244       0.01869424      -0.65978952       1.52431232       0.88922244
Si       1.19380591       1.28158246       1.21248916      -0.44599217      -0.99292739      -3.20029635
Si      -0.04979376       2.29343049       2.42600627       4.94635056       1.76086987       0.51612411
Si       1.17554417       3.57936020       3.54728215       0.40150400      -2.21746991       1.51908360
Si       2.26920762       0.05449444       2.41817880       2.60148160      -1.28098748      -1.50780336
Si       3.59711271       1.23444175       3.50905159      -2.01265172      -5.02197344       3.47125508
Si       2.50733274       2.37008106       0.02158607      -2.62749960       0.63926362      -1.74149270
Si       3.62857026       3.42030846       1.29512273      -2.20340316       5.58891241       0.05390718
8
Lattice="4.9232000000000005 0.0 0.0 0.0 4.9232000000000005 0.0 0.0 0.0 4.9232000000000005" Properties=species:S:1:pos:R:3:forces:R:3 config_type=bulk energy=-36.73653095872836 virial="40.5103919889575 2.485011179907241 0.7357437351007368 2.485011179907241 41.95937807329411 7.197141903960279 0.7357437351007368 7.197141903960279 40.88106143446292" label_model=mpa-0 structure_key=4965a68e45ac401a69fbf23c986dc87553af2f92ea43b841054012446667a8a4 pbc="T T T"
Si       0.02455441       0.01837879      -0.05912884      -1.90247535       1.91820181       3.56861789
Si       1.23593011       1.20306005       1.26609226      -0.33393929       1.06079636      -0.85585089
Si       0.05019195       2.44514397       2.57768476      -1.54436653      -0.31312187      -3.19639235
Si       1.08416555       3.77846443       3.69087326       4.39292913      -1.37940062      -0.69841718
Si       2.45715721       0.01980344       2.48852091      -0.05626146      -1.62415207      -0.22885752
Si       3.69295098       1.19957793       3.66787990      -0.98512738       1.12055450       1.07324510
Si       2.45493033       2.50710424      -0.00384830      -1.46492625      -0.85773500      -1.43030777
Si       3.65456558       3.70701570       1.17978730       1.89416714       0.07485689       1.76796272
8
Lattice="5.068 0.0 0.0 0.0 5.068 0.0 0.0 0.0 5.068" Properties=species:S:1:pos:R:3:forces:R:3 config_type=bulk energy=-37.75599541178153 virial="31.625463401954676 4.028715043087168 5.136808271415917 4.028715043087168 30.987040583577915 -10.23786459262419 5.136808271415917 -10.23786459262419 29.493126483859754" label_model=mpa-0 structure_key=39dc51659c636904e74ef67504aa7bad2c556a00ffafa0a295588648d920b3db pbc="T T T"
Si      -0.06838752       0.05235048      -0.10120570       6.47010277      -4.16323718       4.25644699
Si       1.32660841       1.40056555       1.20277079      -2.68509389      -4.75737273       3.30399365
Si       0.00185733       2.61066410       2.49911209      -2.63007168      -3.16060346      -0.60267111
Si       1.23455056       3.73448162       3.66237914      -0.20799432       0.88644853       3.37272056
Si       2.48076390      -0.04170007       2.65569320       2.13571384       1.94543780      -3.07728861
Si       3.86537250       1.15379174       3.94503735      -5.25820047       6.38117602      -4.92985843
Si       2.39654474       2.58153199       0.04994100       3.35823954       1.73575015      -3.66975028
Si       3.84091671       3.77468060       1.14638838      -1.18269578       1.13240086       1.34640723
8
Lattice="5.2128000000000005 0.0 0.0 0.0 5.2128000000000005 0.0 0.0 0.0 5.2128000000000005" Properties=species:S:1:pos:R:3:forces:R:3 config_type=bulk energy=-41.421458347657435 virial="16.79080723726526 0.7086365673150741 0.4226040940358041 0.7086365673150741 17.143189735022062 -2.582743898285337 0.4226040940358041 -2.582743898285337 16.70433900928244" label_model=mpa-0 structure_key=c145dae6e78429355fe95030e7e0738f6eca5d434f262f7748ef10535ed2095a pbc="T T T"
Si      -0.02497886      -0.03834127       0.01683618      -0.72267191       1.15356296       0.29768146
Si       1.35573023       1.42351138       1.18728184      -2.31412773      -2.75186199       2.50611749
Si      -0.00977150       2.67562695       2.54957671       0.59867064      -0.43901969       1.05930779
Si       1.34778267       3.93732199       4.02450773      -1.54711199       1.16869043      -2.91635183
Si       2.59844639       0.04098590       2.60421661      -0.97137072      -0.57758169      -0.93101982
Si       3.84243859       1.31071979       3.86348733       1.30409921       0.82039305       0.88438219
Si       2.49447444       2.64818820      -0.01141620       3.22493777      -0.57464508      -1.38023985
Si       3.81389055       3.84212414       1.26703501       0.42757473       1.20046201       0.48012257
8
Lattice="5.3576 0.0 0.0 0.0 5.3576 0.0 0.0 0.0 5.3576" Properties=species:S:1:pos:R:3:forces:R:3 config_type=bulk energy=-42.62030107690336 virial="6.978779142025079 0.35882059990306914 1.3705307219927394 0.35882059990306914 7.177640377529129 0.49017089479378173 1.3705307219927394 0.49017089479378173 7.251540856139217" label_model=mpa-0 structure_key=f2b531809b253cd4f763a0032357d121a5904462eb020a107390c44b85d7dded pbc="T T T"
Si       0.08421361      -0.06740832       0.01087221      -0.69059477       0.77219304      -0.02973684
Si       1.36170110       1.35928718       1.37639139      -0.22592654      -0.31945754      -0.24958134
Si      -0.04317252       2.70237840       2.59044475       0.52776144      -0.71965312       2.00547109
Si       1.43727339       4.06021302       4.00555794      -1.15790088      -1.15418309      -0.28390849
Si       2.69813411       0.05149562       2.75137728      -0.31139321      -1.01515705      -2.08123903
Si       3.90938213       1.27020817       4.04397955       2.44590428       1.45318057       1.01612783
Si       2.67249438       2.69867461       0.03183295      -0.03445318      -0.32427600      -0.25059771
Si       4.03199428       3.98344843       1.32942270      -0.55339714       1.30735319      -0.12653551
8
Lattice="5.5024 0.0 0.0 0.0 5.5024 0.0 0.0 0.0 5.5024" Properties=species:S:1:pos:R:3:forces:R:3 config_type=bulk energy=-43.08507124133113 virial="-1.6615413835320543 -0.4020711653341957 -0.5908613243070965 -0.4020711653341957 -1.4183366287959445 -0.30701308810622224 -0.5908613243070965 -0.30701308810622224 -1.2945535059298423" label_model=mpa-0 structure_key=0cf4762893075927f08c376870c9543e954a7f415217c3b3f1d920097d931acd pbc="T T T"
Si       0.09106267      -0.06179301       0.02414986      -0.81831164      -0.00308501       0.02417771
Si       1.29531710       1.33088224       1.41838572       0.39219001       0.53629813       0.22643724
Si      -0.10751269       2.72853010       2.81702076       0.94914475       0.74424503      -0.59260188
Si       1.42243807       4.09210452       4.16662018      -0.16533536       0.00836107      -0.69654584
Si       2.77390817       0.08130294       2.79209857      -0.16125840      -0.42113456       0.13899391
Si       4.18801142       1.40313452       4.19215143      -0.41372301      -0.85426649       0.36599094
Si       2.70776080       2.67219303      -0.01349606       0.26822165       0.38039356       0.85444419
Si       4.08658392       4.16363465       1.41384181      -0.05092800      -0.39081174      -0.32089626
8
Lattice="5.6472 0.0 0.0 0.0 5.6472 0.0 0.0 0.0 5.6472" Properties=species:S:1:pos:R:3:forces:R:3 config_type=bulk energy=-42.673666088875315 virial="-7.7747088114941985 0.3584869301614484 -0.8619365025666937 0.3584869301614484 -7.9758754921838415 0.40691823533840327 -0.8619365025666937 0.40691823533840327 -7.870120172663769" label_model=mpa-0 structure_key=393e9203c87b22004e751eee252c63907798a35ee1f776356e3d5c023ce76b37 pbc="T T T"
Si       0.05765895      -0.05562510      -0.08253458      -0.25489808       0.47449416       0.70927655
Si       1.44055115       1.48027352       1.38983541      -0.23746228      -0.82230502       0.12127057
Si      -0.01074216       2.77838449       2.87337803      -0.15140575       0.22404298      -0.55070164
Si       1.43923694       4.17547610       4.19702178      -0.07981964      -0.17594659       0.39059289
Si       2.77955999      -0.10652031       2.80773662       0.11729106       1.29513721       0.10314176
Si       4.24633820       1.38255664       4.25374055      -0.27828522      -0.26421994      -0.03112105
Si       2.88737676       2.88165821       0.07105458      -0.32366997      -0.55616305      -0.72238592
Si       4.18088678       4.26561547       1.43215033       1.20824989      -0.17503975      -0.02007316
8
Lattice="5.792000000000001 0.0 0.0 0.0 5.792000000000001 0.0 0.0 0.0 5.792000000000001" Properties=species:S:1:pos:R:3:forces:R:3 config_type=bulk energy=-41.71816600531202 virial="-13.210092612433685 -0.9045472687827452 -0.7913614629832126 -0.9045472687827452 -13.41144988755249 -0.1813705250421053 -0.7913614629832126 -0.1813705250421053 -13.26059596963603" label_model=mpa-0 structure_key=1a332693744474342b7a5a4f3079a00f6fd9f6915873f9c6fc9cae50faa18ba6 pbc="T T T"
Si       0.02206255      -0.00553306      -0.02670873      -0.16974738       0.17843465       0.02135764
Si       1.53730362       1.45648007       1.33912283      -0.78792173      -0.48838668       0.72238729
Si      -0.09709479       2.89199160       2.77299818       1.08090194      -0.16621205       0.77215315
Si       1.43986550       4.32932748       4.36330249      -0.19759509      -0.11062925      -0.83885420
Si       2.91217687      -0.02717227       2.86516692       0.04130813       0.19123953       0.18396644
Si       4.30295952       1.56254303       4.38677223       0.76192478      -1.47357091      -1.19406633
Si       2.92061496       2.82623777      -0.06431342      -0.53459128       1.01984654       0.36891458
Si       4.34030151       4.25178444       1.37464616      -0.19427939       0.84927819      -0.03585857
8
Lattice="5.936800000000001 0.0 0.0 0.0 5.936800000000001 0.0 0.0 0.0 5.936800000000001" Properties=species:S:1:pos:R:3:forces:R:3 config_type=bulk energy=-40.59502678791776 virial="-17.407116146750422 -0.35974672742825714 0.942676835538942 -0.35974672742825714 -17.207425636910973 -1.3630585926619687 0.942676835538942 -1.3630585926619687 -17.215863113475567" label_model=mpa-0 structure_key=9a3353978bec6b9a251ddc3109156cf13c02c3465fe9287e9a7f5683f3ba334e pbc="T T T"
Si      -0.00209242       0.01596053       0.01379422       0.60932207      -0.32426936      -0.15149427
Si       1.54412935       1.44485197       1.55097614      -0.73640330       0.73500155      -0.81317152
Si      -0.01387349       3.03686090       2.86908239       0.81102577      -0.73184886       0.80742530
Si       1.53686463       4.48931840       4.38811153      -0.57938153      -0.13444867       0.50397200
Si       2.88626412       0.03259693       2.93983742       1.34743361      -0.49136112       0.34742086
Si       4.55577658       1.45920313       4.41118408      -0.84167853       0.46386386       0.09534736
Si       3.01191696       2.97688022       0.03816304       0.20873926      -0.39390875      -0.49372893
Si       4.51421191       4.39383007       1.47834705      -0.81905735       0.87697135      -0.29577079
8
Lattice="6.0816 0.0 0.0 0.0 6.0816 0.0 0.0 0.0 6.0816" Properties=species:S:1:pos:R:3:forces:R:3 config_type=bulk energy=-39.22984293826757 virial="-20.326712945229133 0.5639018416120749 0.2518827952416267 0.5639018416120749 -19.952288581958946 0.8471003166707815 0.2518827952416267 0.8471003166707815 -20.163392754316877" label_model=mpa-0 structure_key=0d41e55bc035f005daa45658d019d3e91e7ba74a9ecbd820e8f0d6ce92710744 pbc="T T T"
Si       0.01886872      -0.02010131       0.03619177      -0.28826328      -0.13208942      -0.71294457
Si       1.51989394       1.44948296       1.55758552       0.57118772      -0.00803672      -0.06191398
Si       0.05992768       2.97897505       2.95752066      -0.64448545      -0.03421726       0.09709234
Si       1.51755725       4.45576114       4.51358965       0.37458147       0.38912084       0.39157168
Si       3.18646320      -0.07781338       3.07704912      -1.15659550      -0.34444514      -0.66611540
Si       4.44335434       1.46976628       4.45136267       1.21509032       0.36726651       0.84245260
Si       3.05846381       3.00862700       0.01672602      -0.49952979      -0.29666148      -0.45935084
Si       4.58288025       4.51177307       1.41871585       0.42801450       0.05906267       0.56920816
8
Lattice="4.7783999999999995 0.0 0.0 0.0 4.7783999999999995 0.0 0.0 0.0 4.7783999999999995" Properties=species:S:1:pos:R:3:forces:R:3 config_type=bulk energy=-30.73194901536586 virial="59.88654531279971 4.28280982006733 -5.577649311044617 4.28280982006733 57.67662830918899 -7.535159496048741 -5.577649311044617 -7.535159496048741 62.070139581430524" label_model=mpa-0 structure_key=9271d8251f9b7165c4bff35a6fb66ef9c039dda42cff156222a82d29ece7caac pbc="T T T"
Si      -0.03453748      -0.11142992       0.02492565      -0.82841727       1.91180179       1.12314349
Si       1.19354121       1.31057662       1.21845222      -0.39441358      -1.14974075      -4.23044304
Si      -0.06639168       2.26150732       2.43827502       7.58137877       2.48693803       0.50753575
Si       1.16919223       3.57788027       3.53510953       0.45320003      -2.87957499       1.90657396
Si       2.22921016       0.07265926       2.42783839       3.25533477      -1.48602415      -1.69437966
Si       3.60155028       1.24772233       3.48413546      -3.53446689      -7.15467504       5.06636665
Si       2.54671033       2.36370809       0.02878143      -3.46494103       0.72029437      -2.24073614
Si       3.64349368       3.36581127       1.32863031      -3.06767481       7.55098074      -0.43806101
8
Lattice="4.9232000000000005 0.0 0.0 0.0 4.9232000000000005 0.0 0.0 0.0 4.9232000000000005" Properties=species:S:1:pos:R:3:forces:R:3 config_type=bulk energy=-36.04307735478305 virial="40.95014697657742 2.8921911061438186 0.8892841732296962 2.8921911061438186 43.65810342963986 9.884563629105457 0.8892841732296962 9.884563629105457 41.715868463266396" label_model=mpa-0 structure_key=de4e7a1760a1a976ab18418813cba7342092fedff61acec055aa22cead8c22a0 pbc="T T T"
Si       0.03273921       0.02450505      -0.07883845      -2.75222200       2.97613268       5.20744119
Si       1.23764015       1.19381341       1.27785634      -0.48081098       1.40395983      -1.12809544
Si       0.06692261       2.43965863       2.61637968      -1.86828655      -0.75738772      -4.12276641
Si       1.03528740       3.80715257       3.69036435       6.04218224      -2.03130517      -1.44107734
Si       2.45567628       0.02640459       2.49749455      -0.11192000      -2.18821947      -0.31779761
Si       3.69313464       1.18917057       3.65970653      -1.29312607       1.52101270       1.37716099
Si       2.45270711       2.52227232      -0.00513106      -1.92642325      -1.21405006      -1.84680220
Si       3.64195411       3.71188760       1.16278307       2.39060662       0.28985721       2.27193682
8
Lattice="5.068 0.0 0.0 0.0 5.068 0.0 0.0 0.0 5.068" Properties=species:S:1:pos:R:3:forces:R:3 config_type=bulk energy=-35.29116153844918 virial="35.86970348486579 4.59401705297873 7.515044135417794 4.59401705297873 34.83249944059049 -14.888894206636643 7.515044135417794 -14.888894206636643 31.7097687938967" label_model=mpa-0 structure_key=192bb61e5431b82c97f7cc29cfbfbbcea93380270d31614539b724cedc2e0414 pbc="T T T"
Si      -0.09118336       0.06980064      -0.13494094      10.19789571      -7.19138642       6.87669759
Si       1.34647788       1.44508741       1.18136105      -4.07176883      -6.87402739       5.10594072
Si       0.00247644       2.63621880       2.48748278      -3.68752854      -4.25587456      -1.17207555
Si       1.22373408       3.71230883       3.61617218       0.05636265       1.11719091       4.68246412
Si       2.46301853      -0.05560009       2.69625759       2.95651822       2.84771713      -3.91563270
Si       3.88683000       1.11605565       3.99304980      -8.84336847       9.92560242      -7.85927609
Si       2.35072633       2.59737599       0.06658800       4.83426659       3.22051065      -5.36121692
Si       3.85422229       3.76590747       1.10618450      -1.44237733       1.21026727       1.64309883
8
Lattice="5.2128000000000005 0.0 0.0 0.0 5.2128000000000005 0.0 0.0 0.0 5.2128000000000005" Properties=species:S:1:pos:R:3:forces:R:3 config_type=bulk energy=-40.66497334769154 virial="17.771656197435874 1.0540975930262404 0.5450629959560639 1.0540975930262404 18.572976004268817 -3.9822550690601273 0.5450629959560639 -3.9822550690601273 17.691737275707535" label_model=mpa-0 structure_key=a74a95149aa0aef785ad0bfef27ac16fb313ea7ce7d0cc5ed900de0f33978fbb pbc="T T T"
Si      -0.03330514      -0.05112169       0.02244824      -0.96683228       1.51635590       0.38945615
Si       1.37324030       1.46361517       1.14864245      -3.41812928      -4.08700225       3.73169285
Si      -0.01302867       2.69870260       2.53063561       0.77048256      -0.59070801       1.35396223
Si       1.36264356       3.94656266       4.06281031      -2.16886118       1.91619729      -4.07093704
Si       2.59579518       0.05464787       2.60348882      -1.31056141      -0.85994636      -1.28883782
Si       3.82005146       1.31322639       3.84811644       1.75890623       1.15674841       1.22637455
Si       2.45716592       2.66211760      -0.01522160       4.72141844      -0.65334553      -2.02188618
Si       3.78198740       3.81963219       1.25498001       0.61357692       1.60170054       0.68017526
8
Lattice="5.3576 0.0 0.0 0.0 5.3576 0.0 0.0 0.0 5.3576" Properties=species:S:1:pos:R:3:forces:R:3 config_type=bulk energy=-42.17215286056845 virial="7.711651211933158 0.6666251732735864 2.1157811874999273 0.6666251732735864 8.060701036834116 0.7266413370411734 2.1157811874999273 0.7266413370411734 8.230241257758477" label_model=mpa-0 structure_key=9355357d927d560b92aa4c626bfeb27e8a2d920e77748fd78dd56b8095eb24e3 pbc="T T T"
Si       0.11228482      -0.08987775       0.01449629      -0.94514453       1.02592413       0.00892648
Si       1.36913480       1.36591624       1.38872185      -0.29763139      -0.44892306      -0.32541312
Si      -0.05756336       2.71023787       2.56099300       0.83649859      -1.06222682       2.70277518
Si       1.46989785       4.07421736       4.00134392      -1.54952704      -1.58318176      -0.32762238
Si       2.70457882       0.06866083       2.77556971      -0.59557081      -1.47223071      -3.07445619
Si       3.87310951       1.24714423       4.05257274       3.40545496       2.13204368       1.65514942
Si       2.67039250       2.70529948       0.04244393      -0.04738187      -0.44310877      -0.36430495
Si       4.03659238       3.97186458       1.32609693      -0.80669791       1.85170331      -0.27505444
8
Lattice="5.5024 0.0 0.0 0.0 5.5024 0.0 0.0 0.0 5.5024" Properties=species:S:1:pos:R:3:forces:R:3 config_type=bulk energy=-42.907197330847794 virial="-1.698882010727299 -0.5262462094728942 -0.9060188803364625 -0.5262462094728942 -1.2059882028472682 -0.5202300198931978 -0.9060188803364625 -0.5202300198931978 -0.9878507708703878" label_model=mpa-0 structure_key=dc214a229a0930d202a7cf3beaa114c519f27f557b7181a9c24e26005927dffd pbc="T T T"
Si       0.12141690      -0.08239068       0.03219981      -1.13904549      -0.01912252       0.02620398
Si       1.26855614       1.31597632       1.43264763       0.53665791       0.75155211       0.34516135
Si      -0.14335025       2.72097347       2.83896102       1.34960867       1.11411172      -0.92034963
Si       1.43805076       4.08053936       4.17989357      -0.22513595       0.01643115      -0.98563446
Si       2.78147756       0.10840393       2.80573143      -0.21647476      -0.55106726       0.18912623
Si       4.20841522       1.41231269       4.21393524      -0.60699207      -1.26247916       0.61930504
Si       2.69328106       2.64585738      -0.01799475       0.35089792       0.47457362       1.16391814
Si       4.07317856       4.17591287       1.42658908      -0.04951623      -0.52399965      -0.43773065
8
Lattice="5.6472 0.0 0.0 0.0 5.6472 0.0 0.0 0.0 5.6472" Properties=species:S:1:pos:R:3:forces:R:3 config_type=bulk energy=-42.46402104994705 virial="-7.5217183798772504 0.5953487063318151 -1.2596187073351917 0.5953487063318151 -7.8669931726553575 0.6682892875862716 -1.2596187073351917 0.6682892875862716 -7.6848857219819715" label_model=mpa-0 structure_key=d7062ec5930f988f5d4c25caa1e79a4efbd080a628a874511cddf53260ad8480 pbc="T T T"
Si       0.07687859      -0.07416680      -0.11004611      -0.35509756       0.65044612       0.97217693
Si       1.45013486       1.50309802       1.38251388      -0.32895069      -1.12066236       0.17468467
Si      -0.01432288       2.76331265       2.88997071      -0.20142755       0.31193441      -0.76240300
Si       1.44838258       4.15550146       4.18422903      -0.10869682      -0.29052386       0.56400667
Si       2.76487999      -0.14202708       2.80244882       0.11772270       1.82669556       0.15484608
Si       4.24998427       1.37280886       4.25985407      -0.39521035      -0.35998614      -0.02678269
Si       2.90863568       2.90101095       0.09473944      -0.48888690      -0.81100364      -1.05685334
Si       4.16271571       4.27568730       1.43893377       1.76054716      -0.20690010      -0.01967532
8
Lattice="5.792000000000001 0.0 0.0 0.0 5.792000000000001 0.0 0.0 0.0 5.792000000000001" Properties=species:S:1:pos:R:3:forces:R:3 config_type=bulk energy=-41.387182844546366 virial="-12.647132311172287 -1.52129408401054 -1.2978078950035785 -1.52129408401054 -13.092166252057497 -0.10286699330863669 -1.2978078950035785 -0.10286699330863669 -12.739811584196474" label_model=mpa-0 structure_key=3a2a40dd5f709ab94a461aa3731b02cb7c3ac77672d701e0402c8a9948c72b5b pbc="T T T"
Si       0.02941673      -0.00737742      -0.03561164      -0.24714831       0.24781131       0.03449539
Si       1.56707149       1.45930677       1.30283044      -1.08402154      -0.70186986       1.01524730
Si      -0.12945972       2.89065547       2.73199757       1.47404949      -0.33552151       1.10953409
Si       1.43715400       4.32443664       4.36973665      -0.23643961      -0.14682373      -1.10178827
Si       2.91756915      -0.03622969       2.85488923       0.05336069       0.25692878       0.22952232
Si       4.28927936       1.60072404       4.40102964       1.29052168      -2.12467634      -1.80703759
Si       2.92881995       2.80298370      -0.08575123      -0.91606067       1.58975869       0.64975659
Si       4.33906868       4.22104592       1.35019488      -0.33426172       1.21439265      -0.12972983
8
Lattice="5.936800000000001 0.0 0.0 0.0 5.936800000000001 0.0 0.0 0.0 5.936800000000001" Properties=species:S:1:pos:R:3:forces:R:3 config_type=bulk energy=-40.319058705192155 virial="-17.004837372514192 -0.730163446968562 1.4535920143094154 -0.730163446968562 -16.6609686353496 -2.0375662095498113 1.4535920143094154 -2.0375662095498113 -16.698131504958212" label_model=mpa-0 structure_key=0e3aa815abfe648435a101c8956efed4495f085331b4b9820f042dfb2871e101 pbc="T T T"
Si      -0.00278990       0.02128071       0.01839229       0.79339153      -0.42121078      -0.18212260
Si       1.56410580       1.43173596       1.57323485      -1.05833373       1.07128709      -1.16730407
Si      -0.01849799       3.05968120       2.83597652       1.16002363      -1.04258143       1.15046347
Si       1.55441951       4.50155787       4.36661538      -0.77897003      -0.20698724       0.67318449
Si       2.85888549       0.04346257       2.93031656       1.82582340      -0.69750235       0.55518108
Si       4.59016877       1.45087085       4.39737878      -1.07872201       0.60051127       0.10701771
Si       3.02642262       2.97970696       0.05088405       0.25456138      -0.51570069      -0.63759616
Si       4.53474921       4.37424010       1.47639606      -1.11777418       1.21218412      -0.49882391
8
Lattice="6.0816 0.0 0.0 0.0 6.0816 0.0 0.0 0.0 6.0816" Properties=species:S:1:pos:R:3:forces:R:3 config_type=bulk energy=-38.99193294468516 virial="-19.993398470213386 0.791648837694297 0.3849918839040032 0.791648837694297 -19.235451058359008 1.199338681855993 0.3849918839040032 1.199338681855993 -19.669916896155662" label_model=mpa-0 structure_key=be7ef070e83417c760fe2558cf7d5e55fb20aeef3f02df08278836563a44a7f6 pbc="T T T"
Si       0.02515829      -0.02680174       0.04825569      -0.33889871      -0.17774096      -0.89218466
Si       1.51972525       1.42584394       1.56998070       0.72925753      -0.02396613      -0.10857418
Si       0.07990358       2.95836673       2.92976088      -0.82860496      -0.02250196       0.14301952
Si       1.51660967       4.42061485       4.49771953       0.47922137       0.50409098       0.49424222
Si       3.23501760      -0.10375118       3.08913216      -1.54492652      -0.59480345      -0.93827015
Si       4.40407245       1.45288838       4.41475022       1.60273761       0.63045202       1.14688339
Si       3.06435175       2.99790267       0.02230136      -0.64390000      -0.40019341      -0.59251947
Si       4.59010700       4.49529742       1.38482113       0.54511369       0.08466291       0.74740333
64
Lattice="10.9344 0.0 0.0 0.0 10.9344 0.0 0.0 0.0 10.9344" Properties=species:S:1:pos:R:3:forces:R:3 config_type=supercell energy=-346.54397309290533 virial="0.08980904129207641 -9.465606380002319e-14 -1.9994299889249727e-13 -9.465606380002319e-14 0.08980904129199545 -9.954479139737191e-14 -1.9994299889249727e-13 -9.954479139737191e-14 0.08980904129193039" label_model=mpa-0 structure_key=b7de79124f50e500699899bc02d383fd50eac6370355a784d92f6dd9628d3bc6 pbc="T T T"
Si       0.00000000       0.00000000       0.00000000       0.00000000       0.00000000       0.00000000
Si       1.36680000       1.36680000       1.36680000       0.00000000       0.00000000       0.00000000
Si       0.00000000       2.73360000       2.73360000       0.00000000       0.00000000      -0.00000000
Si       1.36680000       4.10040000       4.10040000       0.00000000       0.00000000       0.00000000
Si       2.73360000       0.00000000       2.73360000       0.00000000       0.00000000      -0.00000000
Si       4.10040000       1.36680000       4.10040000      -0.00000000       0.00000000       0.00000000
Si       2.73360000       2.73360000       0.00000000       0.00000000      -0.00000000       0.00000000
Si       4.10040000       4.10040000       1.36680000       0.00000000       0.00000000       0.00000000
Si       0.00000000       0.00000000       5.46720000       0.00000000      -0.00000000      -0.00000000
Si       1.36680000       1.36680000       6.83400000      -0.00000000      -0.00000000       0.00000000
Si       0.00000000       2.73360000       8.20080000       0.00000000      -0.00000000      -0.00000000
Si       1.36680000       4.10040000       9.56760000       0.00000000       0.00000000      -0.00000000
Si       2.73360000       0.00000000       8.20080000      -0.00000000       0.00000000      -0.00000000
Si       4.10040000       1.36680000       9.56760000       0.00000000       0.00000000      -0.00000000
Si       2.73360000       2.73360000       5.46720000       0.00000000       0.00000000       0.00000000
Si       4.10040000       4.10040000       6.83400000       0.00000000       0.00000000       0.00000000
Si       0.00000000       5.46720000       0.00000000       0.00000000      -0.00000000       0.00000000
Si       1.36680000       6.83400000       1.36680000       0.00000000       0.00000000      -0.00000000
Si       0.00000000       8.20080000       2.73360000       0.00000000      -0.00000000       0.00000000
Si       1.36680000       9.56760000       4.10040000       0.00000000      -0.00000000       0.00000000
Si       2.73360000       5.46720000       2.73360000       0.00000000      -0.00000000      -0.00000000
Si       4.10040000       6.83400000       4.10040000      -0.00000000       0.00000000       0.00000000
Si       2.73360000       8.20080000       0.00000000      -0.00000000      -0.00000000       0.00000000
Si       4.10040000       9.56760000       1.36680000      -0.00000000      -0.00000000       0.00000000
Si       0.00000000       5.46720000       5.46720000      -0.00000000      -0.00000000      -0.00000000
Si       1.36680000       6.83400000       6.83400000       0.00000000       0.00000000       0.00000000
Si       0.00000000       8.20080000       8.20080000       0.00000000      -0.00000000      -0.00000000
Si       1.36680000       9.56760000       9.56760000       0.00000000      -0.00000000      -0.00000000
Si       2.73360000       5.46720000       8.20080000       0.00000000       0.00000000       0.00000000
Si       4.10040000       6.83400000       9.56760000      -0.00000000       0.00000000      -0.00000000
Si       2.73360000       8.20080000       5.46720000       0.00000000       0.00000000       0.00000000
Si       4.10040000       9.56760000       6.83400000      -0.00000000      -0.00000000       0.00000000
Si       5.46720000       0.00000000       0.00000000      -0.00000000       0.00000000       0.00000000
Si       6.83400000       1.36680000       1.36680000       0.00000000       0.00000000      -0.00000000
Si       5.46720000       2.73360000       2.73360000      -0.00000000      -0.00000000      -0.00000000
Si       6.83400000       4.10040000       4.10040000       0.00000000       0.00000000       0.00000000
Si       8.20080000       0.00000000       2.73360000      -0.00000000      -0.00000000       0.00000000
Si       9.56760000       1.36680000       4.10040000      -0.00000000       0.00000000      -0.00000000
Si       8.20080000       2.73360000       0.00000000      -0.00000000       0.00000000      -0.00000000
Si       9.56760000       4.10040000       1.36680000      -0.00000000      -0.00000000       0.00000000
Si       5.46720000       0.00000000       5.46720000      -0.00000000      -0.00000000      -0.00000000
Si       6.83400000       1.36680000       6.83400000       0.00000000       0.00000000       0.00000000
Si       5.46720000       2.73360000       8.20080000       0.00000000       0.00000000       0.00000000
Si       6.83400000       4.10040000       9.56760000       0.00000000      -0.00000000      -0.00000000
Si       8.20080000       0.00000000       8.20080000      -0.00000000       0.00000000      -0.00000000
Si       9.56760000       1.36680000       9.56760000      -0.00000000      -0.00000000      -0.00000000
Si       8.20080000       2.73360000       5.46720000      -0.00000000       0.00000000       0.00000000
Si       9.56760000       4.10040000       6.83400000      -0.00000000       0.00000000       0.00000000
Si       5.46720000       5.46720000       0.00000000      -0.00000000      -0.00000000      -0.00000000
Si       6.83400000       6.83400000       1.36680000       0.00000000       0.00000000      -0.00000000
Si       5.46720000       8.20080000       2.73360000       0.00000000      -0.00000000       0.00000000
Si       6.83400000       9.56760000       4.10040000       0.00000000      -0.00000000      -0.00000000
Si       8.20080000       5.46720000       2.73360000      -0.00000000       0.00000000       0.00000000
Si       9.56760000       6.83400000       4.10040000      -0.00000000       0.00000000       0.00000000
Si       8.20080000       8.20080000       0.00000000      -0.00000000      -0.00000000       0.00000000
Si       9.56760000       9.56760000       1.36680000      -0.00000000      -0.00000000      -0.00000000
Si       5.46720000       5.46720000       5.46720000       0.00000000      -0.00000000      -0.00000000
Si       6.83400000       6.83400000       6.83400000       0.00000000       0.00000000       0.00000000
Si       5.46720000       8.20080000       8.20080000       0.00000000      -0.00000000      -0.00000000
Si       6.83400000       9.56760000       9.56760000       0.00000000      -0.00000000      -0.00000000
Si       8.20080000       5.46720000       8.20080000      -0.00000000       0.00000000      -0.00000000
Si       9.56760000       6.83400000       9.56760000      -0.00000000       0.00000000       0.00000000
Si       8.20080000       8.20080000       5.46720000      -0.00000000      -0.00000000       0.00000000
Si       9.56760000       9.56760000       6.83400000      -0.00000000       0.00000000       0.00000000
63
Lattice="10.9344 0.0 0.0 0.0 10.9344 0.0 0.0 0.0 10.9344" Properties=species:S:1:pos:R:3:forces:R:3 config_type=vacancy energy=-338.2394672299722 virial="-1.8861926437397203 -7.882228805745037e-14 -1.8955820448328163e-13 -7.882228805745037e-14 -1.886192643739834 -6.991796707572772e-14 -1.8955820448328163e-13 -6.991796707572772e-14 -1.8861926437399068" label_model=mpa-0 structure_key=0a55c92754a23464a958aa503e6aa586e3c190fd9d25496df2229a7995d43274 pbc="T T T"
Si       1.36680000       1.36680000       1.36680000      -0.20261923      -0.20261923      -0.20261923
Si       0.00000000       2.73360000       2.73360000       0.08899175      -0.10020434      -0.10020434
Si       1.36680000       4.10040000       4.10040000      -0.00764003       0.02024167       0.02024167
Si       2.73360000       0.00000000       2.73360000      -0.10020434       0.08899175      -0.10020434
Si       4.10040000       1.36680000       4.10040000       0.02024167      -0.00764003       0.02024167
Si       2.73360000       2.73360000       0.00000000      -0.10020434      -0.10020434       0.08899175
Si       4.10040000       4.10040000       1.36680000       0.02024167       0.02024167      -0.00764003
Si       0.00000000       0.00000000       5.46720000       0.00000000      -0.00000000      -0.00000000
Si       1.36680000       1.36680000       6.83400000       0.01180355       0.01180355       0.03307041
Si       0.00000000       2.73360000       8.20080000      -0.08899175      -0.10020434       0.10020434
Si       1.36680000       4.10040000       9.56760000       0.01180355      -0.03307041      -0.01180355
Si       2.73360000       0.00000000       8.20080000      -0.10020434      -0.08899175       0.10020434
Si       4.10040000       1.36680000       9.56760000      -0.03307041       0.01180355      -0.01180355
Si       2.73360000       2.73360000       5.46720000       0.00217373       0.00217373      -0.00622768
Si       4.10040000       4.10040000       6.83400000      -0.00681695      -0.00681695       0.00681695
Si       0.00000000       5.46720000       0.00000000       0.00000000      -0.00000000       0.00000000
Si       1.36680000       6.83400000       1.36680000       0.01180355       0.03307041       0.01180355
Si       0.00000000       8.20080000       2.73360000      -0.08899175       0.10020434      -0.10020434
Si       1.36680000       9.56760000       4.10040000       0.01180355      -0.01180355      -0.03307041
Si       2.73360000       5.46720000       2.73360000       0.00217373      -0.00622768       0.00217373
Si       4.10040000       6.83400000       4.10040000      -0.00681695       0.00681695      -0.00681695
Si       2.73360000       8.20080000       0.00000000      -0.10020434       0.10020434      -0.08899175
Si       4.10040000       9.56760000       1.36680000      -0.03307041      -0.01180355       0.01180355
Si       0.00000000       5.46720000       5.46720000      -0.00000000      -0.00000000      -0.00000000
Si       1.36680000       6.83400000       6.83400000      -0.00764003      -0.02024167      -0.02024167
Si       0.00000000       8.20080000       8.20080000       0.08899175       0.10020434       0.10020434
Si       1.36680000       9.56760000       9.56760000      -0.20261923       0.20261923       0.20261923
Si       2.73360000       5.46720000       8.20080000       0.00217373       0.00622768      -0.00217373
Si       4.10040000       6.83400000       9.56760000       0.02024167      -0.02024167       0.00764003
Si       2.73360000       8.20080000       5.46720000       0.00217373      -0.00217373       0.00622768
Si       4.10040000       9.56760000       6.83400000       0.02024167       0.00764003      -0.02024167
Si       5.46720000       0.00000000       0.00000000      -0.00000000       0.00000000       0.00000000
Si       6.83400000       1.36680000       1.36680000       0.03307041       0.01180355       0.01180355
Si       5.46720000       2.73360000       2.73360000      -0.00622768       0.00217373       0.00217373
Si       6.83400000       4.10040000       4.10040000       0.00681695      -0.00681695      -0.00681695
Si       8.20080000       0.00000000       2.73360000       0.10020434      -0.08899175      -0.10020434
Si       9.56760000       1.36680000       4.10040000      -0.01180355       0.01180355      -0.03307041
Si       8.20080000       2.73360000       0.00000000       0.10020434      -0.10020434      -0.08899175
Si       9.56760000       4.10040000       1.36680000      -0.01180355      -0.03307041       0.01180355
Si       5.46720000       0.00000000       5.46720000      -0.00000000      -0.00000000      -0.00000000
Si       6.83400000       1.36680000       6.83400000      -0.02024167      -0.00764003      -0.02024167
Si       5.46720000       2.73360000       8.20080000       0.00622768       0.00217373      -0.00217373
Si       6.83400000       4.10040000       9.56760000      -0.02024167       0.02024167       0.00764003
Si       8.20080000       0.00000000       8.20080000       0.10020434       0.08899175       0.10020434
Si       9.56760000       1.36680000       9.56760000       0.20261923      -0.20261923       0.20261923
Si       8.20080000       2.73360000       5.46720000      -0.00217373       0.00217373       0.00622768
Si       9.56760000       4.10040000       6.83400000       0.00764003       0.02024167      -0.02024167
Si       5.46720000       5.46720000       0.00000000      -0.00000000      -0.00000000      -0.00000000
Si       6.83400000       6.83400000       1.36680000      -0.02024167      -0.02024167      -0.00764003
Si       5.46720000       8.20080000       2.73360000       0.00622768      -0.00217373       0.00217373
Si       6.83400000       9.56760000       4.10040000      -0.02024167       0.00764003       0.02024167
Si       8.20080000       5.46720000       2.73360000      -0.00217373       0.00622768       0.00217373
Si       9.56760000       6.83400000       4.10040000       0.00764003      -0.02024167       0.02024167
Si       8.20080000       8.20080000       0.00000000       0.10020434       0.10020434       0.08899175
Si       9.56760000       9.56760000       1.36680000       0.20261923       0.20261923      -0.20261923
Si       5.46720000       5.46720000       5.46720000       0.00000000      -0.00000000      -0.00000000
Si       6.83400000       6.83400000       6.83400000       0.00681695       0.00681695       0.00681695
Si       5.46720000       8.20080000       8.20080000      -0.00622768      -0.00217373      -0.00217373
Si       6.83400000       9.56760000       9.56760000       0.03307041      -0.01180355      -0.01180355
Si       8.20080000       5.46720000       8.20080000      -0.00217373      -0.00622768      -0.00217373
Si       9.56760000       6.83400000       9.56760000      -0.01180355       0.03307041      -0.01180355
Si       8.20080000       8.20080000       5.46720000      -0.00217373      -0.00217373      -0.00622768
Si       9.56760000       9.56760000       6.83400000      -0.01180355      -0.01180355       0.03307041
