8
Lattice="5.43 0.0 0.0 0.0 5.43 0.0 0.0 0.0 5.43" Properties=species:S:1:pos:R:3:forces:R:3 config_type=bulk energy=-43.04722037793425 virial="1.8920964661236326 -2.680209196054113e-16 -6.217476000586896e-16 -2.680209196054113e-16 1.8920964661236277 5.493595940895681e-16 -6.217476000586896e-16 5.493595940895681e-16 1.8920964661236284" label_model=mp-0b3 structure_key=3759df0316ddd71631e9e11ec09dd52876c0db918ac7e5ff9005f8b846f2a3d8 pbc="T T T"
Si       0.00000000       0.00000000       0.00000000      -0.00000000       0.00000000       0.00000000
Si       1.35750000       1.35750000       1.35750000      -0.00000000       0.00000000       0.00000000
Si       0.00000000       2.71500000       2.71500000       0.00000000       0.00000000      -0.00000000
Si       1.35750000       4.07250000       4.07250000      -0.00000000      -0.00000000      -0.00000000
Si       2.71500000       0.00000000       2.71500000      -0.00000000       0.00000000      -0.00000000
Si       4.07250000       1.35750000       4.07250000       0.00000000      -0.00000000       0.00000000
Si       2.71500000       2.71500000       0.00000000      -0.00000000      -0.00000000       0.00000000
Si       4.07250000       4.07250000       1.35750000       0.00000000      -0.00000000      -0.00000000
48
Lattice="7.679179643685906 0.0 0.0 3.8395898218429525 6.650364651656329 0.0 0.0 0.0 32.458812798923255" Properties=species:S:1:pos:R:3:tags:I:1:forces:R:3 config_type=slab miller=111 energy=-251.3086958845651 label_model=mp-0b3 structure_key=27e993f6aab9fbfb558f5c9bc3fb0a34bcdee869c22af19e0aa78972470aa9f1 pbc="T T F"
Si       0.00000000       0.00000000       8.78375299        6      -0.00000000      -0.00000000       0.04932239
Si       3.83958982       2.21678822       8.00000000        6       0.00000000       0.00000000      -0.34714422
Si       1.91979491       3.32518233       8.78375299        6      -0.00000000       0.00000000       0.04932239
Si       5.75938473       5.54197054       8.00000000        6      -0.00000000      -0.00000000      -0.34714422
Si       3.83958982       0.00000000       8.78375299        6       0.00000000      -0.00000000       0.04932239
Si       7.67917964       2.21678822       8.00000000        6       0.00000000       0.00000000      -0.34714422
Si       5.75938473       3.32518233       8.78375299        6      -0.00000000      -0.00000000       0.04932239
Si       9.59897455       5.54197054       8.00000000        6       0.00000000       0.00000000      -0.34714422
Si       7.67917964       4.43357643      11.91876495        5      -0.00000000      -0.00000000       0.06177430
Si       0.00000000       0.00000000      11.13501196        5       0.00000000      -0.00000000       0.10356159
Si       5.75938473       1.10839411      11.91876495        5      -0.00000000       0.00000000       0.06177430
Si       1.91979491       3.32518233      11.13501196        5       0.00000000       0.00000000       0.10356159
Si       3.83958982       4.43357643      11.91876495        5      -0.00000000      -0.00000000       0.06177430
Si       7.67917964       6.65036465      11.13501196        5       0.00000000       0.00000000       0.10356159
Si       1.91979491       1.10839411      11.91876495        5      -0.00000000      -0.00000000       0.06177430
Si       5.75938473       3.32518233      11.13501196        5       0.00000000       0.00000000       0.10356159
Si       3.83958982       2.21678822      15.05377691        4      -0.00000000       0.00000000      -0.03562084
Si       7.67917964       4.43357643      14.27002392        4       0.00000000      -0.00000000       0.02021522
Si       5.75938473       5.54197054      15.05377691        4      -0.00000000       0.00000000      -0.03562084
Si       5.75938473       1.10839411      14.27002392        4       0.00000000      -0.00000000       0.02021522
Si       7.67917964       2.21678822      15.05377691        4      -0.00000000       0.00000000      -0.03562084
Si       3.83958982       4.43357643      14.27002392        4       0.00000000       0.00000000       0.02021522
Si       9.59897455       5.54197054      15.05377691        4      -0.00000000      -0.00000000      -0.03562084
Si       1.91979491       1.10839411      14.27002392        4       0.00000000       0.00000000       0.02021522
Si       0.00000000       0.00000000      18.18878888        3      -0.00000000      -0.00000000      -0.02021522
Si       3.83958982       2.21678822      17.40503589        3       0.00000000      -0.00000000       0.03562084
Si       1.91979491       3.32518233      18.18878888        3      -0.00000000       0.00000000      -0.02021522
Si       5.75938473       5.54197054      17.40503589        3       0.00000000       0.00000000       0.03562084
Si       3.83958982       0.00000000      18.18878888        3       0.00000000      -0.00000000      -0.02021522
Si       7.67917964       2.21678822      17.40503589        3       0.00000000       0.00000000       0.03562084
Si       5.75938473       3.32518233      18.18878888        3       0.00000000      -0.00000000      -0.02021522
Si       9.59897455       5.54197054      17.40503589        3       0.00000000       0.00000000       0.03562084
Si       7.67917964       4.43357643      21.32380084        2      -0.00000000       0.00000000      -0.10356159
Si       0.00000000       0.00000000      20.54004785        2       0.00000000      -0.00000000      -0.06177430
Si       5.75938473       1.10839411      21.32380084        2      -0.00000000       0.00000000      -0.10356159
Si       1.91979491       3.32518233      20.54004785        2       0.00000000      -0.00000000      -0.06177430
Si       3.83958982       4.43357643      21.32380084        2      -0.00000000      -0.00000000      -0.10356159
Si       3.83958982       0.00000000      20.54004785        2       0.00000000       0.00000000      -0.06177430
Si       1.91979491       1.10839411      21.32380084        2      -0.00000000      -0.00000000      -0.10356159
Si       5.75938473       3.32518233      20.54004785        2       0.00000000       0.00000000      -0.06177430
Si       3.83958982       2.21678822      24.45881280        1      -0.00000000      -0.00000000       0.34714422
Si       7.67917964       4.43357643      23.67505981        1       0.00000000       0.00000000      -0.04932239
Si       5.75938473       5.54197054      24.45881280        1      -0.00000000       0.00000000       0.34714422
Si       5.75938473       1.10839411      23.67505981        1       0.00000000       0.00000000      -0.04932239
Si       7.67917964       2.21678822      24.45881280        1       0.00000000      -0.00000000       0.34714422
Si       3.83958982       4.43357643      23.67505981        1       0.00000000       0.00000000      -0.04932239
Si       9.59897455       5.54197054      24.45881280        1      -0.00000000      -0.00000000       0.34714422
Si       1.91979491       1.10839411      23.67505981        1       0.00000000       0.00000000      -0.04932239
8
Lattice="5.1042 0.0 0.0 0.0 5.1042 0.0 0.0 0.0 5.1042" Properties=species:S:1:pos:R:3:forces:R:3 config_type=bulk energy=-40.95731305333112 virial="20.02399876384482 -0.3510735964112155 -2.868236385142818 -0.3510735964112155 19.915282547046097 0.6322469400103613 -2.868236385142818 0.6322469400103613 20.13020099259344" label_model=mp-0b3 structure_key=1eb247f3fccb0d9aaffc14f008e8f7d98e7d3a07366c8acec1ccd4cd26efa164 pbc="T T T"
Si       0.05260410       0.00663270      -0.01975080      -0.68882073       0.20423048       0.40462913
Si       1.29998015       1.31015351       1.27894146      -0.55529665      -0.24437602       0.30861549
Si      -0.00449578       2.55652746       2.59334241       0.38983442       0.01839521      -0.01206011
Si       1.32317910       3.87505887       3.80867717      -0.01521565      -1.27052699       0.62255912
Si       2.54786887      -0.00998793       2.53058794       0.50217692       0.83013173      -0.05554857
Si       3.79601603       1.30236860       3.85295728       0.71037980      -1.16378992      -0.65532872
Si       2.60138953       2.51300708       0.02542038      -0.73998990       1.50956748       0.03154436
Si       3.84541877       3.82959958       1.30869209       0.39693179       0.11636804      -0.64441070
8
Lattice="5.197285714285714 0.0 0.0 0.0 5.197285714285714 0.0 0.0 0.0 5.197285714285714" Properties=species:S:1:pos:R:3:forces:R:3 config_type=bulk energy=-41.993561683306794 virial="13.974313604820995 -0.31688234772919605 0.7330135581994126 -0.31688234772919605 13.98594460764059 -0.8962988229972007 0.7330135581994126 -0.8962988229972007 13.99632285692524" label_model=mp-0b3 structure_key=6abc68b794c942d604ac122860f69387f52577ff9ca420de1b8b370a08857f63 pbc="T T T"
Si      -0.00115699       0.01074660      -0.01340815       0.15268427      -0.48918768       0.14188599
Si       1.30441028       1.28500575       1.29013387       0.03620532       0.21423336      -0.09522535
Si      -0.00062536       2.59970944       2.56888689       0.38967229      -0.00270660       0.31145335
Si       1.33096600       3.91830127       3.86952155      -0.53771489      -0.15639789       0.08399334
Si       2.61404274       0.00860488       2.58788650       0.11235442       0.05504090      -0.11064332
Si       3.93057802       1.28491005       3.87626504      -0.39026860       0.42655746       0.10388220
Si       2.59111395       2.60683269      -0.01986500       0.26753708      -0.29951847      -0.01035232
Si       3.89564246       3.88491850       1.30608832      -0.03046988       0.25197892      -0.42499389
8
Lattice="5.2903714285714285 0.0 0.0 0.0 5.2903714285714285 0.0 0.0 0.0 5.2903714285714285" Properties=species:S:1:pos:R:3:forces:R:3 config_type=bulk energy=-42.576300881338064 virial="8.915689206366881 0.8723828426059866 0.061294978159937806 0.8723828426059866 8.908178777261167 0.26167734608696946 0.061294978159937806 0.26167734608696946 8.895342564190306" label_model=mp-0b3 structure_key=5597c306073b325f30d0d96cf603057f7c6a5961f62987829bfde9d365e70e21 pbc="T T T"
Si       0.00360308      -0.02040675      -0.01855590      -0.20862136       0.20848159       0.27708349
Si       1.32877963       1.34716224       1.30184162      -0.17241002      -0.56269549       0.31545332
Si       0.01324078       2.62672024       2.66239346      -0.17678296       0.17532622      -0.32709534
Si       1.31677241       3.96090671       3.96630777       0.14057376       0.13666677      -0.12179901
Si       2.65928574       0.01657146       2.66752931      -0.39359296      -0.25078640      -0.49578419
Si       3.96425763       1.31730060       3.94864079       0.04288401       0.25690985       0.63240411
Si       2.61382271       2.66329329       0.01280594       0.45935223      -0.20238681      -0.45049656
Si       3.94872111       3.94586252       1.32684949       0.30859730       0.23848427       0.17023419
8
Lattice="5.383457142857143 0.0 0.0 0.0 5.383457142857143 0.0 0.0 0.0 5.383457142857143" Properties=species:S:1:pos:R:3:forces:R:3 config_type=bulk energy=-42.89277303735321 virial="4.200759354965585 0.512056213602508 -0.45391502140954754 0.512056213602508 4.239057345758273 0.6548240040263579 -0.45391502140954754 0.6548240040263579 4.218140274804901" label_model=mp-0b3 structure_key=df6580745a78948424272e9bfdab745e15d8c3ebcbdf082dc6f61b2ddcdda5d9 pbc="T T T"
Si       0.02538958      -0.01990286       0.03287703      -0.62272329       0.23463984      -0.43045991
Si       1.35110821       1.31287467       1.32144169      -0.00332390       0.13105170       0.73092939
Si      -0.02338015       2.68573106       2.67805662       0.32130182      -0.03780639       0.15712735
Si       1.32962631       4.04621407       4.06877430       0.35296793      -0.37378992      -0.33891973
Si       2.72645983       0.00078827       2.70094780      -0.48910352      -0.13130859      -0.01724294
Si       4.01010373       1.36277548       4.04697149       0.54053402      -0.30168671       0.17522801
Si       2.68332086       2.65267504       0.03548687      -0.07763181       0.53408342      -0.34433346
Si       4.03681843       4.02986214       1.34222361      -0.02202125      -0.05518335       0.06767128
8
Lattice="5.476542857142857 0.0 0.0 0.0 5.476542857142857 0.0 0.0 0.0 5.476542857142857" Properties=species:S:1:pos:R:3:forces:R:3 config_type=bulk energy=-43.02755074768628 virial="-0.19922314671694663 -0.04917314922944227 0.24340709806005623 -0.04917314922944227 -0.18010125072117258 -0.39223578906186374 0.24340709806005623 -0.39223578906186374 -0.1887483225350128" label_model=mp-0b3 structure_key=1673b86071a33b6fa6fdfd12ce988d7791168fd54e0c0ca484773dea413458ee pbc="T T T"
Si      -0.03159758      -0.00052379      -0.01682888       0.58110940      -0.03429531       0.07239463
Si       1.38811580       1.38358111       1.36216473      -0.14587585      -0.16919744      -0.20984741
Si       0.02251451       2.75306999       2.70430352      -0.17304870      -0.24583816       0.21902207
Si       1.38154836       4.09549018       4.08095970      -0.23792877       0.14204447       0.24838660
Si       2.72755290       0.00405965       2.75709029       0.16329115      -0.09988494      -0.39149197
Si       4.10664750       1.34222315       4.09419168       0.10129419       0.42342443      -0.15473839
Si       2.75523645       2.73604945      -0.03363796       0.03796872       0.01122363       0.20657538
Si       4.12369363       4.11615783       1.36077131      -0.32681014      -0.02747668       0.00969908
8
Lattice="5.569628571428572 0.0 0.0 0.0 5.569628571428572 0.0 0.0 0.0 5.569628571428572" Properties=species:S:1:pos:R:3:forces:R:3 config_type=bulk energy=-42.886678922314864 virial="-4.267564480439756 0.5850045848382504 0.06278270463476239 0.5850045848382504 -4.262794649643656 0.019299766880588095 0.06278270463476239 0.019299766880588095 -4.302608109774056" label_model=mp-0b3 structure_key=58d94ae06cbb6fab074278881f9240fb34aacfd8f1dbb60644543848c464bb57 pbc="T T T"
Si      -0.01330517       0.03924475       0.00768456      -0.07818321      -0.35244709      -0.32863879
Si       1.38443278       1.37940586       1.37252904       0.12597289      -0.00616718       0.31249182
Si       0.04776175       2.78757874       2.74465029      -0.40950788      -0.01422017       0.34096093
Si       1.39979263       4.20625452       4.16799200      -0.17782080      -0.28407745       0.37040028
Si       2.76629127      -0.01094652       2.79985243       0.19255321       0.07759492      -0.37168490
Si       4.14967926       1.38715519       4.15323957       0.20978664       0.32753522       0.21864581
Si       2.76208862       2.77743319       0.04975809       0.22310016       0.14719040      -0.62670271
Si       4.19041859       4.17374822       1.39513186      -0.08590102       0.10459135       0.08452757
8
Lattice="5.662714285714285 0.0 0.0 0.0 5.662714285714285 0.0 0.0 0.0 5.662714285714285" Properties=species:S:1:pos:R:3:forces:R:3 config_type=bulk energy=-42.58363573571013 virial="-8.166733147383907 0.7029263043584246 -0.011050023653655927 0.7029263043584246 -8.15034667982753 0.5272549915132168 -0.011050023653655927 0.5272549915132168 -8.201026008478033" label_model=mp-0b3 structure_key=ad5703ad73c524d110fb7aa32b59b7c513b94eabba89582dd94d0c2ba9d5de80 pbc="T T T"
Si      -0.00504795      -0.00772870       0.01205626      -0.09501713       0.06277447      -0.28338988
Si       1.39257031       1.42060647       1.42052237       0.25099627       0.01950126       0.16145783
Si       0.00575036       2.85068752       2.87965027      -0.22367654      -0.13399803      -0.61329535
Si       1.42520487       4.25119181       4.20060457       0.12457441       0.11831352       0.68449942
Si       2.86067632       0.00863326       2.84453540      -0.41319767       0.07380852      -0.34380515
Si       4.22943397       1.43191285       4.22918583       0.30762630      -0.09018664       0.46673894
Si       2.83934982       2.83665662       0.00456566      -0.29709457       0.00132049      -0.14855055
Si       4.22469456       4.25123374       1.42846163       0.34578893      -0.05153360       0.07634474
8
Lattice="5.7558 0.0 0.0 0.0 5.7558 0.0 0.0 0.0 5.7558" Properties=species:S:1:pos:R:3:forces:R:3 config_type=bulk energy=-42.11761018909718 virial="-11.937770290724416 0.05583384987262803 -0.39342315479105194 0.05583384987262803 -11.960493584982263 0.0036713523802512525 -0.39342315479105194 0.0036713523802512525 -11.94361793413205" label_model=mp-0b3 structure_key=b89f739dcfb593265900ca954340f58ed61a6c2439c27216444823f6c9f09736 pbc="T T T"
Si       0.01885557       0.00378979       0.00854799      -0.05108418       0.09882696       0.00033846
Si       1.45934879       1.48282130       1.44545515      -0.11455655      -0.50710760       0.06974353
Si      -0.00003665       2.87227509       2.87461833      -0.00624251       0.16562665       0.07743389
Si       1.44070638       4.29826260       4.32962386       0.01560118      -0.04044888       0.03425581
Si       2.86985079      -0.03818420       2.87529398       0.01692539       0.41641659       0.12089892
Si       4.33239908       1.43219364       4.31103868      -0.11222147      -0.13978666       0.08984799
Si       2.89386575       2.86928147       0.03515785       0.03859836       0.15907610      -0.32658268
Si       4.30555151       4.32830426       1.45161589       0.21297978      -0.15260317      -0.06593593
32
Lattice="5.43 0.0 0.0 0.0 5.43 0.0 0.0 0.0 36.3625" Properties=species:S:1:pos:R:3:tags:I:1:forces:R:3 config_type=slab miller=100 energy=-165.68918439532584 label_model=mp-0b3 structure_key=617368cf53ccf0349e8281fa7456bdd92453ef207fcaf0767243d33fe844a3c7 pbc="T T F"
Si       1.35750000       1.35750000       9.35750000        4       0.00000000      -0.00000000       0.07829957
Si       2.71500000       2.71500000      10.71500000        4       0.00000000       0.00000000      -0.04398840
Si       4.07250000       4.07250000       9.35750000        4      -0.00000000       0.00000000       0.07829957
Si       0.00000000       0.00000000      10.71500000        4       0.00000000       0.00000000      -0.04398840
Si       1.35750000       4.07250000      12.07250000        4      -0.00000000      -0.00000000       0.03918398
Si       2.71500000       0.00000000       8.00000000        4      -0.00000000       0.00000000      -0.19405786
Si       4.07250000       1.35750000      12.07250000        4      -0.00000000      -0.00000000       0.03918398
Si       0.00000000       2.71500000       8.00000000        4      -0.00000000       0.00000000      -0.19405786
Si       1.35750000       1.35750000      14.78750000        3      -0.00000000      -0.00000000      -0.01079382
Si       2.71500000       2.71500000      16.14500000        3       0.00000000       0.00000000      -0.01323563
Si       4.07250000       4.07250000      14.78750000        3      -0.00000000      -0.00000000      -0.01079382
Si       0.00000000       0.00000000      16.14500000        3      -0.00000000       0.00000000      -0.01323563
Si       1.35750000       4.07250000      17.50250000        3      -0.00000000      -0.00000000      -0.00296393
Si       2.71500000       0.00000000      13.43000000        3       0.00000000       0.00000000      -0.03020278
Si       4.07250000       1.35750000      17.50250000        3      -0.00000000      -0.00000000      -0.00296393
Si       0.00000000       2.71500000      13.43000000        3       0.00000000       0.00000000      -0.03020278
Si       1.35750000       1.35750000      20.21750000        2      -0.00000000      -0.00000000       0.01323563
Si       2.71500000       2.71500000      21.57500000        2       0.00000000       0.00000000       0.01079382
Si       4.07250000       4.07250000      20.21750000        2      -0.00000000      -0.00000000       0.01323563
Si       0.00000000       0.00000000      21.57500000        2       0.00000000       0.00000000       0.01079382
Si       1.35750000       4.07250000      22.93250000        2      -0.00000000      -0.00000000       0.03020278
Si       2.71500000       0.00000000      18.86000000        2       0.00000000       0.00000000       0.00296393
Si       4.07250000       1.35750000      22.93250000        2      -0.00000000      -0.00000000       0.03020278
Si       0.00000000       2.71500000      18.86000000        2       0.00000000       0.00000000       0.00296393
Si       1.35750000       1.35750000      25.64750000        1      -0.00000000      -0.00000000       0.04398840
Si       2.71500000       2.71500000      27.00500000        1       0.00000000       0.00000000      -0.07829957
Si       4.07250000       4.07250000      25.64750000        1      -0.00000000      -0.00000000       0.04398840
Si       0.00000000       0.00000000      27.00500000        1      -0.00000000      -0.00000000      -0.07829957
Si       1.35750000       4.07250000      28.36250000        1       0.00000000      -0.00000000       0.19405786
Si       2.71500000       0.00000000      24.29000000        1       0.00000000       0.00000000      -0.03918398
Si       4.07250000       1.35750000      28.36250000        1      -0.00000000       0.00000000       0.19405786
Si       0.00000000       2.71500000      24.29000000        1       0.00000000       0.00000000      -0.03918398
32
Lattice="7.679179643685906 0.0 0.0 0.0 5.43 0.0 0.0 0.0 29.438564376450337" Properties=species:S:1:pos:R:3:tags:I:1:forces:R:3 config_type=slab miller=110 energy=-165.80392499867898 label_model=mp-0b3 structure_key=8f39af8a26e238882876daf9793a97778ab54c75cea2058015b57c01c4616aee pbc="T T F"
Si       7.67917964       4.07250000       9.91979491        4       0.00000000      -0.09261281      -0.12778815
Si       3.83958982       2.71500000       8.00000000        4       0.00000000      -0.12209717      -0.02060347
Si       1.91979491       1.35750000       8.00000000        4       0.00000000       0.12209717      -0.02060347
Si       1.91979491       0.00000000       9.91979491        4      -0.00000000       0.09261281      -0.12778815
Si       5.75938473       1.35750000       8.00000000        4       0.00000000       0.12209717      -0.02060347
Si       5.75938473       0.00000000       9.91979491        4      -0.00000000       0.09261281      -0.12778815
Si       3.83958982       4.07250000       9.91979491        4       0.00000000      -0.09261281      -0.12778815
Si       0.00000000       2.71500000       8.00000000        4      -0.00000000      -0.12209717      -0.02060347
Si       3.83958982       4.07250000      13.75938473        3       0.00000000       0.01127338      -0.01642761
Si       7.67917964       2.71500000      11.83958982        3      -0.00000000       0.02320152       0.06398728
Si       5.75938473       1.35750000      11.83958982        3       0.00000000      -0.02320152       0.06398728
Si       5.75938473       0.00000000      13.75938473        3      -0.00000000      -0.01127338      -0.01642761
Si       1.91979491       1.35750000      11.83958982        3       0.00000000      -0.02320152       0.06398728
Si       1.91979491       0.00000000      13.75938473        3      -0.00000000      -0.01127338      -0.01642761
Si       7.67917964       4.07250000      13.75938473        3       0.00000000       0.01127338      -0.01642761
Si       3.83958982       2.71500000      11.83958982        3      -0.00000000       0.02320152       0.06398728
Si       7.67917964       4.07250000      17.59897455        2       0.00000000      -0.02320152      -0.06398728
Si       3.83958982       2.71500000      15.67917964        2       0.00000000      -0.01127338       0.01642761
Si       1.91979491       1.35750000      15.67917964        2       0.00000000       0.01127338       0.01642761
Si       1.91979491       0.00000000      17.59897455        2       0.00000000       0.02320152      -0.06398728
Si       5.75938473       1.35750000      15.67917964        2       0.00000000       0.01127338       0.01642761
Si       5.75938473       0.00000000      17.59897455        2      -0.00000000       0.02320152      -0.06398728
Si       3.83958982       4.07250000      17.59897455        2       0.00000000      -0.02320152      -0.06398728
Si       7.67917964       2.71500000      15.67917964        2      -0.00000000      -0.01127338       0.01642761
Si       3.83958982       4.07250000      21.43856438        1      -0.00000000       0.12209717       0.02060347
Si       7.67917964       2.71500000      19.51876947        1       0.00000000       0.09261281       0.12778815
Si       5.75938473       1.35750000      19.51876947        1      -0.00000000      -0.09261281       0.12778815
Si       5.75938473       0.00000000      21.43856438        1       0.00000000      -0.12209717       0.02060347
Si       1.91979491       1.35750000      19.51876947        1      -0.00000000      -0.09261281       0.12778815
Si       1.91979491       0.00000000      21.43856438        1      -0.00000000      -0.12209717       0.02060347
Si       7.67917964       4.07250000      21.43856438        1       0.00000000       0.12209717       0.02060347
Si       3.83958982       2.71500000      19.51876947        1       0.00000000       0.09261281       0.12778815
32
Lattice="7.679179643685906 0.0 0.0 3.8395898218429525 6.650364651656329 0.0 0.0 0.0 26.18878887552392" Properties=species:S:1:pos:R:3:tags:I:1:forces:R:3 config_type=slab miller=111 energy=-165.21425225936895 label_model=mp-0b3 structure_key=1deaaff8a4d6c72976baa66100c9f401c71ab67bb8e16a26b31fe2be4d31e983 pbc="T T F"
Si       3.83958982       6.65036465       8.78375299        4      -0.00000000       0.00000000       0.04974116
Si       3.83958982       2.21678822       8.00000000        4       0.00000000      -0.00000000      -0.34607711
Si       1.91979491       3.32518233       8.78375299        4      -0.00000000       0.00000000       0.04974116
Si       5.75938473       5.54197054       8.00000000        4       0.00000000      -0.00000000      -0.34607711
Si       7.67917964       6.65036465       8.78375299        4       0.00000000       0.00000000       0.04974116
Si       7.67917964       2.21678822       8.00000000        4       0.00000000       0.00000000      -0.34607711
Si       5.75938473       3.32518233       8.78375299        4       0.00000000      -0.00000000       0.04974116
Si       9.59897455       5.54197054       8.00000000        4       0.00000000       0.00000000      -0.34607711
Si       7.67917964       4.43357643      11.91876495        3      -0.00000000       0.00000000       0.04260545
Si       3.83958982       6.65036465      11.13501196        3       0.00000000      -0.00000000       0.13961477
Si       5.75938473       1.10839411      11.91876495        3      -0.00000000       0.00000000       0.04260545
Si       1.91979491       3.32518233      11.13501196        3       0.00000000      -0.00000000       0.13961477
Si       3.83958982       4.43357643      11.91876495        3      -0.00000000      -0.00000000       0.04260545
Si       7.67917964       6.65036465      11.13501196        3      -0.00000000       0.00000000       0.13961477
Si       1.91979491       1.10839411      11.91876495        3      -0.00000000      -0.00000000       0.04260545
Si       5.75938473       3.32518233      11.13501196        3       0.00000000       0.00000000       0.13961477
Si       3.83958982       2.21678822      15.05377691        2      -0.00000000       0.00000000      -0.13961477
Si       7.67917964       4.43357643      14.27002392        2       0.00000000      -0.00000000      -0.04260545
Si       5.75938473       5.54197054      15.05377691        2      -0.00000000       0.00000000      -0.13961477
Si       5.75938473       1.10839411      14.27002392        2       0.00000000      -0.00000000      -0.04260545
Si       7.67917964       2.21678822      15.05377691        2      -0.00000000       0.00000000      -0.13961477
Si       3.83958982       4.43357643      14.27002392        2       0.00000000       0.00000000      -0.04260545
Si       9.59897455       5.54197054      15.05377691        2      -0.00000000       0.00000000      -0.13961477
Si       1.91979491       1.10839411      14.27002392        2       0.00000000       0.00000000      -0.04260545
Si       3.83958982       6.65036465      18.18878888        1       0.00000000       0.00000000       0.34607711
Si       3.83958982       2.21678822      17.40503589        1       0.00000000      -0.00000000      -0.04974116
Si       1.91979491       3.32518233      18.18878888        1       0.00000000       0.00000000       0.34607711
Si       5.75938473       5.54197054      17.40503589        1      -0.00000000      -0.00000000      -0.04974116
Si       7.67917964       6.65036465      18.18878888        1       0.00000000       0.00000000       0.34607711
Si       7.67917964       2.21678822      17.40503589        1      -0.00000000      -0.00000000      -0.04974116
Si       5.75938473       3.32518233      18.18878888        1      -0.00000000      -0.00000000       0.34607711
Si       9.59897455       5.54197054      17.40503589        1       0.00000000       0.00000000      -0.04974116
