8
Lattice="5.43 0.0 0.0 0.0 5.43 0.0 0.0 0.0 5.43" Properties=species:S:1:pos:R:3:forces:R:3 config_type=bulk energy=-43.299058508501645 virial="1.8510670369566076 1.2597480253022417e-14 -1.0829872432582353e-14 1.2597480253022417e-14 1.8510670369566127 -5.762201437649349e-15 -1.0829872432582353e-14 -5.762201437649349e-15 1.8510670369566142" label_model=mpa-0 structure_key=3759df0316ddd71631e9e11ec09dd52876c0db918ac7e5ff9005f8b846f2a3d8 pbc="T T T"
Si       0.00000000       0.00000000       0.00000000       0.00000000       0.00000000      -0.00000000
Si       1.35750000       1.35750000       1.35750000       0.00000000      -0.00000000      -0.00000000
Si       0.00000000       2.71500000       2.71500000      -0.00000000       0.00000000      -0.00000000
Si       1.35750000       4.07250000       4.07250000      -0.00000000      -0.00000000       0.00000000
Si       2.71500000       0.00000000       2.71500000       0.00000000       0.00000000       0.00000000
Si       4.07250000       1.35750000       4.07250000      -0.00000000       0.00000000       0.00000000
Si       2.71500000       2.71500000       0.00000000      -0.00000000      -0.00000000       0.00000000
Si       4.07250000       4.07250000       1.35750000       0.00000000      -0.00000000       0.00000000
48
Lattice="7.679179643685906 0.0 0.0 3.8395898218429525 6.650364651656329 0.0 0.0 0.0 32.458812798923255" Properties=species:S:1:pos:R:3:tags:I:1:forces:R:3 config_type=slab miller=111 energy=-252.52667500752295 label_model=mpa-0 structure_key=27e993f6aab9fbfb558f5c9bc3fb0a34bcdee869c22af19e0aa78972470aa9f1 pbc="T T F"
Si       0.00000000       0.00000000       8.78375299        6      -0.00000000      -0.00000000      -0.11446684
Si       3.83958982       2.21678822       8.00000000        6       0.00000000      -0.00000000      -0.12283146
Si       1.91979491       3.32518233       8.78375299        6      -0.00000000       0.00000000      -0.11446684
Si       5.75938473       5.54197054       8.00000000        6      -0.00000000       0.00000000      -0.12283146
Si       3.83958982       0.00000000       8.78375299        6      -0.00000000      -0.00000000      -0.11446684
Si       7.67917964       2.21678822       8.00000000        6       0.00000000      -0.00000000      -0.12283146
Si       5.75938473       3.32518233       8.78375299        6       0.00000000      -0.00000000      -0.11446684
Si       9.59897455       5.54197054       8.00000000        6       0.00000000       0.00000000      -0.12283146
Si       7.67917964       4.43357643      11.91876495        5      -0.00000000      -0.00000000       0.01479893
Si       0.00000000       0.00000000      11.13501196        5       0.00000000      -0.00000000       0.06524322
Si       5.75938473       1.10839411      11.91876495        5      -0.00000000       0.00000000       0.01479893
Si       1.91979491       3.32518233      11.13501196        5       0.00000000      -0.00000000       0.06524322
Si       3.83958982       4.43357643      11.91876495        5      -0.00000000      -0.00000000       0.01479893
Si       7.67917964       6.65036465      11.13501196        5       0.00000000       0.00000000       0.06524322
Si       1.91979491       1.10839411      11.91876495        5      -0.00000000      -0.00000000       0.01479893
Si       5.75938473       3.32518233      11.13501196        5       0.00000000       0.00000000       0.06524322
Si       3.83958982       2.21678822      15.05377691        4      -0.00000000       0.00000000       0.00878884
Si       7.67917964       4.43357643      14.27002392        4       0.00000000      -0.00000000      -0.00491787
Si       5.75938473       5.54197054      15.05377691        4      -0.00000000       0.00000000       0.00878884
Si       5.75938473       1.10839411      14.27002392        4       0.00000000      -0.00000000      -0.00491787
Si       7.67917964       2.21678822      15.05377691        4      -0.00000000       0.00000000       0.00878884
Si       3.83958982       4.43357643      14.27002392        4       0.00000000       0.00000000      -0.00491787
Si       9.59897455       5.54197054      15.05377691        4       0.00000000      -0.00000000       0.00878884
Si       1.91979491       1.10839411      14.27002392        4       0.00000000       0.00000000      -0.00491787
Si       0.00000000       0.00000000      18.18878888        3      -0.00000000       0.00000000       0.00491787
Si       3.83958982       2.21678822      17.40503589        3       0.00000000       0.00000000      -0.00878884
Si       1.91979491       3.32518233      18.18878888        3      -0.00000000       0.00000000       0.00491787
Si       5.75938473       5.54197054      17.40503589        3       0.00000000      -0.00000000      -0.00878884
Si       3.83958982       0.00000000      18.18878888        3       0.00000000      -0.00000000       0.00491787
Si       7.67917964       2.21678822      17.40503589        3       0.00000000       0.00000000      -0.00878884
Si       5.75938473       3.32518233      18.18878888        3       0.00000000      -0.00000000       0.00491787
Si       9.59897455       5.54197054      17.40503589        3       0.00000000       0.00000000      -0.00878884
Si       7.67917964       4.43357643      21.32380084        2      -0.00000000       0.00000000      -0.06524322
Si       0.00000000       0.00000000      20.54004785        2       0.00000000      -0.00000000      -0.01479893
Si       5.75938473       1.10839411      21.32380084        2      -0.00000000       0.00000000      -0.06524322
Si       1.91979491       3.32518233      20.54004785        2       0.00000000      -0.00000000      -0.01479893
Si       3.83958982       4.43357643      21.32380084        2      -0.00000000      -0.00000000      -0.06524322
Si       3.83958982       0.00000000      20.54004785        2       0.00000000       0.00000000      -0.01479893
Si       1.91979491       1.10839411      21.32380084        2       0.00000000      -0.00000000      -0.06524322
Si       5.75938473       3.32518233      20.54004785        2       0.00000000       0.00000000      -0.01479893
Si       3.83958982       2.21678822      24.45881280        1      -0.00000000      -0.00000000       0.12283146
Si       7.67917964       4.43357643      23.67505981        1       0.00000000      -0.00000000       0.11446684
Si       5.75938473       5.54197054      24.45881280        1      -0.00000000       0.00000000       0.12283146
Si       5.75938473       1.10839411      23.67505981        1       0.00000000       0.00000000       0.11446684
Si       7.67917964       2.21678822      24.45881280        1       0.00000000      -0.00000000       0.12283146
Si       3.83958982       4.43357643      23.67505981        1       0.00000000       0.00000000       0.11446684
Si       9.59897455       5.54197054      24.45881280        1      -0.00000000      -0.00000000       0.12283146
Si       1.91979491       1.10839411      23.67505981        1       0.00000000       0.00000000       0.11446684
8
Lattice="5.1042 0.0 0.0 0.0 5.1042 0.0 0.0 0.0 5.1042" Properties=species:S:1:pos:R:3:forces:R:3 config_type=bulk energy=-40.88505278187769 virial="24.28616836024474 -0.38226583907208384 -3.2203873046711173 -0.38226583907208384 24.13685493593174 0.7209036415115013 -3.2203873046711173 0.7209036415115013 24.406295012504092" label_model=mpa-0 structure_key=1eb247f3fccb0d9aaffc14f008e8f7d98e7d3a07366c8acec1ccd4cd26efa164 pbc="T T T"
Si       0.05260410       0.00663270      -0.01975080      -0.74378378       0.17117232       0.42570792
Si       1.29998015       1.31015351       1.27894146      -0.70157641      -0.19196683       0.34338743
Si      -0.00449578       2.55652746       2.59334241       0.42651333      -0.01889282       0.03593635
Si       1.32317910       3.87505887       3.80867717      -0.00370564      -1.37406066       0.70683314
Si       2.54786887      -0.00998793       2.53058794       0.55841955       0.87054024      -0.12752384
Si       3.79601603       1.30236860       3.85295728       0.75382361      -1.28519160      -0.69875859
Si       2.60138953       2.51300708       0.02542038      -0.79374416       1.64267063       0.04168248
Si       3.84541877       3.82959958       1.30869209       0.50405351       0.18572872      -0.72726489
8
Lattice="5.197285714285714 0.0 0.0 0.0 5.197285714285714 0.0 0.0 0.0 5.197285714285714" Properties=species:S:1:pos:R:3:forces:R:3 config_type=bulk energy=-42.120246174944256 virial="16.591371565667366 -0.37931460160300473 0.886926810109897 -0.37931460160300473 16.606410308835457 -1.0821617255994316 0.886926810109897 -1.0821617255994316 16.619385192190634" label_model=mpa-0 structure_key=6abc68b794c942d604ac122860f69387f52577ff9ca420de1b8b370a08857f63 pbc="T T T"
Si      -0.00115699       0.01074660      -0.01340815       0.13725336      -0.56245668       0.16749927
Si       1.30441028       1.28500575       1.29013387       0.06097974       0.22180605      -0.11559132
Si      -0.00062536       2.59970944       2.56888689       0.43609347       0.03016938       0.34272097
Si       1.33096600       3.91830127       3.86952155      -0.58543338      -0.18697717       0.10420731
Si       2.61404274       0.00860488       2.58788650       0.11974345       0.10536099      -0.13029173
Si       3.93057802       1.28491005       3.87626504      -0.39507479       0.48531582       0.15377378
Si       2.59111395       2.60683269      -0.01986500       0.25931281      -0.32859191      -0.03965208
Si       3.89564246       3.88491850       1.30608832      -0.03287466       0.23537352      -0.48266618
8
Lattice="5.2903714285714285 0.0 0.0 0.0 5.2903714285714285 0.0 0.0 0.0 5.2903714285714285" Properties=species:S:1:pos:R:3:forces:R:3 config_type=bulk energy=-42.79544597127683 virial="10.019304713570234 1.0173465025489858 0.07759480089710621 1.0173465025489858 10.012039864540125 0.29801764719847157 0.07759480089710621 0.29801764719847157 9.997620798469445" label_model=mpa-0 structure_key=5597c306073b325f30d0d96cf603057f7c6a5961f62987829bfde9d365e70e21 pbc="T T T"
Si       0.00360308      -0.02040675      -0.01855590      -0.23445382       0.20329387       0.35041266
Si       1.32877963       1.34716224       1.30184162      -0.20405049      -0.63771638       0.28118331
Si       0.01324078       2.62672024       2.66239346      -0.17355648       0.17189825      -0.32615246
Si       1.31677241       3.96090671       3.96630777       0.13622767       0.17375079      -0.19478299
Si       2.65928574       0.01657146       2.66752931      -0.40248084      -0.24429108      -0.51292473
Si       3.96425763       1.31730060       3.94864079       0.03266995       0.28256318       0.67750255
Si       2.61382271       2.66329329       0.01280594       0.51436968      -0.19932642      -0.45108900
Si       3.94872111       3.94586252       1.32684949       0.33127434       0.24982780       0.17585065
8
Lattice="5.383457142857143 0.0 0.0 0.0 5.383457142857143 0.0 0.0 0.0 5.383457142857143" Properties=species:S:1:pos:R:3:forces:R:3 config_type=bulk energy=-43.1451182184303 virial="4.490011473965447 0.5539525414838959 -0.4820536345349116 0.5539525414838959 4.533191173897675 0.6913350540972772 -0.4820536345349116 0.6913350540972772 4.506086487283907" label_model=mpa-0 structure_key=df6580745a78948424272e9bfdab745e15d8c3ebcbdf082dc6f61b2ddcdda5d9 pbc="T T T"
Si       0.02538958      -0.01990286       0.03287703      -0.60644214       0.21191856      -0.44005667
Si       1.35110821       1.31287467       1.32144169      -0.04447142       0.14020331       0.74529374
Si      -0.02338015       2.68573106       2.67805662       0.37213815      -0.05760158       0.17863955
Si       1.32962631       4.04621407       4.06877430       0.31884826      -0.35573937      -0.39610452
Si       2.72645983       0.00078827       2.70094780      -0.43157351      -0.16912019       0.04165080
Si       4.01010373       1.36277548       4.04697149       0.52592387      -0.25611323       0.15292889
Si       2.68332086       2.65267504       0.03548687      -0.06700080       0.52003028      -0.31756415
Si       4.03681843       4.02986214       1.34222361      -0.06742242      -0.03357777       0.03521236
8
Lattice="5.476542857142857 0.0 0.0 0.0 5.476542857142857 0.0 0.0 0.0 5.476542857142857" Properties=species:S:1:pos:R:3:forces:R:3 config_type=bulk energy=-43.28012288202693 virial="-0.35802735504471983 -0.05615015033267823 0.2362544408471326 -0.05615015033267823 -0.3369774545367967 -0.36536545565815276 0.2362544408471326 -0.36536545565815276 -0.34461603069176205" label_model=mpa-0 structure_key=1673b86071a33b6fa6fdfd12ce988d7791168fd54e0c0ca484773dea413458ee pbc="T T T"
Si      -0.03159758      -0.00052379      -0.01682888       0.52403267      -0.01292006       0.07645082
Si       1.38811580       1.38358111       1.36216473      -0.10580141      -0.17377731      -0.20906286
Si       0.02251451       2.75306999       2.70430352      -0.19031320      -0.22283357       0.18736165
Si       1.38154836       4.09549018       4.08095970      -0.21123573       0.10846880       0.25793500
Si       2.72755290       0.00405965       2.75709029       0.10708318      -0.07736081      -0.37240632
Si       4.10664750       1.34222315       4.09419168       0.14306778       0.38773562      -0.15362001
Si       2.75523645       2.73604945      -0.03363796       0.02159159       0.02710295       0.18999971
Si       4.12369363       4.11615783       1.36077131      -0.28842488      -0.03641563       0.02334200
8
Lattice="5.569628571428572 0.0 0.0 0.0 5.569628571428572 0.0 0.0 0.0 5.569628571428572" Properties=species:S:1:pos:R:3:forces:R:3 config_type=bulk energy=-43.129761788572644 virial="-4.603754333505131 0.49923229302195343 0.07484814404643052 0.49923229302195343 -4.589487894435647 0.026004569813767916 0.07484814404643052 0.026004569813767916 -4.653190025969855" label_model=mpa-0 structure_key=58d94ae06cbb6fab074278881f9240fb34aacfd8f1dbb60644543848c464bb57 pbc="T T T"
Si      -0.01330517       0.03924475       0.00768456      -0.10412821      -0.30573599      -0.28997751
Si       1.38443278       1.37940586       1.37252904       0.11179668      -0.03008066       0.23450448
Si       0.04776175       2.78757874       2.74465029      -0.36976073      -0.00529562       0.36669518
Si       1.39979263       4.20625452       4.16799200      -0.16480627      -0.27244256       0.32358281
Si       2.76629127      -0.01094652       2.79985243       0.19351840       0.06096011      -0.27982402
Si       4.14967926       1.38715519       4.15323957       0.18489293       0.32162849       0.14560095
Si       2.76208862       2.77743319       0.04975809       0.21806607       0.15379076      -0.54006959
Si       4.19041859       4.17374822       1.39513186      -0.06957887       0.07717546       0.03948770
8
Lattice="5.662714285714285 0.0 0.0 0.0 5.662714285714285 0.0 0.0 0.0 5.662714285714285" Properties=species:S:1:pos:R:3:forces:R:3 config_type=bulk energy=-42.80929476463185 virial="-8.64264288796696 0.609187613486685 -0.013067771143258135 0.609187613486685 -8.602892648431453 0.45040101310816905 -0.013067771143258135 0.45040101310816905 -8.70474978841163" label_model=mpa-0 structure_key=ad5703ad73c524d110fb7aa32b59b7c513b94eabba89582dd94d0c2ba9d5de80 pbc="T T T"
Si      -0.00504795      -0.00772870       0.01205626      -0.04709725       0.05268290      -0.21271169
Si       1.39257031       1.42060647       1.42052237       0.18254472       0.01301364       0.08677986
Si       0.00575036       2.85068752       2.87965027      -0.15821445      -0.12040135      -0.50273959
Si       1.42520487       4.25119181       4.20060457       0.07959649       0.11606554       0.58019307
Si       2.86067632       0.00863326       2.84453540      -0.33896775       0.08268236      -0.27523455
Si       4.22943397       1.43191285       4.22918583       0.25049160      -0.08433883       0.39419380
Si       2.83934982       2.83665662       0.00456566      -0.24941396      -0.00610880      -0.07809006
Si       4.22469456       4.25123374       1.42846163       0.28106060      -0.05359545       0.00760917
8
Lattice="5.7558 0.0 0.0 0.0 5.7558 0.0 0.0 0.0 5.7558" Properties=species:S:1:pos:R:3:forces:R:3 config_type=bulk energy=-42.316235618183065 virial="-12.276303179452714 0.049627506474185776 -0.35351372505959044 0.049627506474185776 -12.321176493451363 0.0018828636076931246 -0.35351372505959044 0.0018828636076931246 -12.286621845416443" label_model=mpa-0 structure_key=b89f739dcfb593265900ca954340f58ed61a6c2439c27216444823f6c9f09736 pbc="T T T"
Si       0.01885557       0.00378979       0.00854799      -0.04173146       0.08008617       0.00094689
Si       1.45934879       1.48282130       1.44545515      -0.10260764      -0.45095850       0.06005013
Si      -0.00003665       2.87227509       2.87461833      -0.01675055       0.12715479       0.08021906
Si       1.44070638       4.29826260       4.32962386       0.00842254      -0.01663986       0.03949397
Si       2.86985079      -0.03818420       2.87529398       0.00708182       0.36753151       0.12336783
Si       4.33239908       1.43219364       4.31103868      -0.10726847      -0.12331635       0.07586340
Si       2.89386575       2.86928147       0.03515785       0.04852309       0.11328134      -0.31198149
Si       4.30555151       4.32830426       1.45161589       0.20433066      -0.09713910      -0.06795979
32
Lattice="5.43 0.0 0.0 0.0 5.43 0.0 0.0 0.0 36.3625" Properties=species:S:1:pos:R:3:tags:I:1:forces:R:3 config_type=slab miller=100 energy=-166.00437401190226 label_model=mpa-0 structure_key=617368cf53ccf0349e8281fa7456bdd92453ef207fcaf0767243d33fe844a3c7 pbc="T T F"
Si       1.35750000       1.35750000       9.35750000        4      -0.00000000       0.00000000       0.13851832
Si       2.71500000       2.71500000      10.71500000        4       0.00000000       0.00000000      -0.05691469
Si       4.07250000       4.07250000       9.35750000        4       0.00000000      -0.00000000       0.13851832
Si       0.00000000       0.00000000      10.71500000        4      -0.00000000      -0.00000000      -0.05691469
Si       1.35750000       4.07250000      12.07250000        4      -0.00000000       0.00000000       0.00466641
Si       2.71500000       0.00000000       8.00000000        4       0.00000000      -0.00000000      -0.30844849
Si       4.07250000       1.35750000      12.07250000        4      -0.00000000      -0.00000000       0.00466641
Si       0.00000000       2.71500000       8.00000000        4      -0.00000000       0.00000000      -0.30844849
Si       1.35750000       1.35750000      14.78750000        3      -0.00000000      -0.00000000      -0.00419070
Si       2.71500000       2.71500000      16.14500000        3       0.00000000       0.00000000       0.00080848
Si       4.07250000       4.07250000      14.78750000        3      -0.00000000      -0.00000000      -0.00419070
Si       0.00000000       0.00000000      16.14500000        3       0.00000000      -0.00000000       0.00080848
Si       1.35750000       4.07250000      17.50250000        3      -0.00000000      -0.00000000      -0.00015860
Si       2.71500000       0.00000000      13.43000000        3       0.00000000      -0.00000000       0.05572861
Si       4.07250000       1.35750000      17.50250000        3      -0.00000000      -0.00000000      -0.00015860
Si       0.00000000       2.71500000      13.43000000        3      -0.00000000       0.00000000       0.05572861
Si       1.35750000       1.35750000      20.21750000        2      -0.00000000      -0.00000000      -0.00080848
Si       2.71500000       2.71500000      21.57500000        2       0.00000000       0.00000000       0.00419070
Si       4.07250000       4.07250000      20.21750000        2       0.00000000      -0.00000000      -0.00080848
Si       0.00000000       0.00000000      21.57500000        2      -0.00000000      -0.00000000       0.00419070
Si       1.35750000       4.07250000      22.93250000        2      -0.00000000      -0.00000000      -0.05572861
Si       2.71500000       0.00000000      18.86000000        2       0.00000000      -0.00000000       0.00015860
Si       4.07250000       1.35750000      22.93250000        2      -0.00000000      -0.00000000      -0.05572861
Si       0.00000000       2.71500000      18.86000000        2      -0.00000000       0.00000000       0.00015860
Si       1.35750000       1.35750000      25.64750000        1      -0.00000000      -0.00000000       0.05691469
Si       2.71500000       2.71500000      27.00500000        1       0.00000000       0.00000000      -0.13851832
Si       4.07250000       4.07250000      25.64750000        1      -0.00000000       0.00000000       0.05691469
Si       0.00000000       0.00000000      27.00500000        1      -0.00000000      -0.00000000      -0.13851832
Si       1.35750000       4.07250000      28.36250000        1      -0.00000000       0.00000000       0.30844849
Si       2.71500000       0.00000000      24.29000000        1       0.00000000      -0.00000000      -0.00466641
Si       4.07250000       1.35750000      28.36250000        1       0.00000000      -0.00000000       0.30844849
Si       0.00000000       2.71500000      24.29000000        1      -0.00000000       0.00000000      -0.00466641
32
Lattice="7.679179643685906 0.0 0.0 0.0 5.43 0.0 0.0 0.0 29.438564376450337" Properties=species:S:1:pos:R:3:tags:I:1:forces:R:3 config_type=slab miller=110 energy=-166.21014501341608 label_model=mpa-0 structure_key=8f39af8a26e238882876daf9793a97778ab54c75cea2058015b57c01c4616aee pbc="T T F"
Si       7.67917964       4.07250000       9.91979491        4       0.00000000      -0.01541739      -0.14832501
Si       3.83958982       2.71500000       8.00000000        4      -0.00000000      -0.29183413      -0.02073992
Si       1.91979491       1.35750000       8.00000000        4       0.00000000       0.29183413      -0.02073992
Si       1.91979491       0.00000000       9.91979491        4      -0.00000000       0.01541739      -0.14832501
Si       5.75938473       1.35750000       8.00000000        4       0.00000000       0.29183413      -0.02073992
Si       5.75938473       0.00000000       9.91979491        4      -0.00000000       0.01541739      -0.14832501
Si       3.83958982       4.07250000       9.91979491        4      -0.00000000      -0.01541739      -0.14832501
Si       0.00000000       2.71500000       8.00000000        4      -0.00000000      -0.29183413      -0.02073992
Si       3.83958982       4.07250000      13.75938473        3      -0.00000000      -0.01325452       0.00757068
Si       7.67917964       2.71500000      11.83958982        3      -0.00000000       0.01662555       0.03015065
Si       5.75938473       1.35750000      11.83958982        3       0.00000000      -0.01662555       0.03015065
Si       5.75938473       0.00000000      13.75938473        3       0.00000000       0.01325452       0.00757068
Si       1.91979491       1.35750000      11.83958982        3       0.00000000      -0.01662555       0.03015065
Si       1.91979491       0.00000000      13.75938473        3      -0.00000000       0.01325452       0.00757068
Si       7.67917964       4.07250000      13.75938473        3      -0.00000000      -0.01325452       0.00757068
Si       3.83958982       2.71500000      11.83958982        3       0.00000000       0.01662555       0.03015065
Si       7.67917964       4.07250000      17.59897455        2      -0.00000000      -0.01662555      -0.03015065
Si       3.83958982       2.71500000      15.67917964        2      -0.00000000       0.01325452      -0.00757068
Si       1.91979491       1.35750000      15.67917964        2       0.00000000      -0.01325452      -0.00757068
Si       1.91979491       0.00000000      17.59897455        2      -0.00000000       0.01662555      -0.03015065
Si       5.75938473       1.35750000      15.67917964        2       0.00000000      -0.01325452      -0.00757068
Si       5.75938473       0.00000000      17.59897455        2      -0.00000000       0.01662555      -0.03015065
Si       3.83958982       4.07250000      17.59897455        2       0.00000000      -0.01662555      -0.03015065
Si       7.67917964       2.71500000      15.67917964        2       0.00000000       0.01325452      -0.00757068
Si       3.83958982       4.07250000      21.43856438        1      -0.00000000       0.29183413       0.02073992
Si       7.67917964       2.71500000      19.51876947        1       0.00000000       0.01541739       0.14832501
Si       5.75938473       1.35750000      19.51876947        1       0.00000000      -0.01541739       0.14832501
Si       5.75938473       0.00000000      21.43856438        1      -0.00000000      -0.29183413       0.02073992
Si       1.91979491       1.35750000      19.51876947        1      -0.00000000      -0.01541739       0.14832501
Si       1.91979491       0.00000000      21.43856438        1      -0.00000000      -0.29183413       0.02073992
Si       7.67917964       4.07250000      21.43856438        1       0.00000000       0.29183413       0.02073992
Si       3.83958982       2.71500000      19.51876947        1      -0.00000000       0.01541739       0.14832501
32
Lattice="7.679179643685906 0.0 0.0 3.8395898218429525 6.650364651656329 0.0 0.0 0.0 26.18878887552392" Properties=species:S:1:pos:R:3:tags:I:1:forces:R:3 config_type=slab miller=111 energy=-165.92857097855816 label_model=mpa-0 structure_key=1deaaff8a4d6c72976baa66100c9f401c71ab67bb8e16a26b31fe2be4d31e983 pbc="T T F"
Si       3.83958982       6.65036465       8.78375299        4      -0.00000000       0.00000000      -0.11641392
Si       3.83958982       2.21678822       8.00000000        4       0.00000000      -0.00000000      -0.12372205
Si       1.91979491       3.32518233       8.78375299        4      -0.00000000       0.00000000      -0.11641392
Si       5.75938473       5.54197054       8.00000000        4       0.00000000      -0.00000000      -0.12372205
Si       7.67917964       6.65036465       8.78375299        4       0.00000000      -0.00000000      -0.11641392
Si       7.67917964       2.21678822       8.00000000        4       0.00000000       0.00000000      -0.12372205
Si       5.75938473       3.32518233       8.78375299        4      -0.00000000      -0.00000000      -0.11641392
Si       9.59897455       5.54197054       8.00000000        4      -0.00000000       0.00000000      -0.12372205
Si       7.67917964       4.43357643      11.91876495        3      -0.00000000       0.00000000       0.01887835
Si       3.83958982       6.65036465      11.13501196        3       0.00000000      -0.00000000       0.05446287
Si       5.75938473       1.10839411      11.91876495        3      -0.00000000       0.00000000       0.01887835
Si       1.91979491       3.32518233      11.13501196        3       0.00000000      -0.00000000       0.05446287
Si       3.83958982       4.43357643      11.91876495        3       0.00000000      -0.00000000       0.01887835
Si       7.67917964       6.65036465      11.13501196        3      -0.00000000       0.00000000       0.05446287
Si       1.91979491       1.10839411      11.91876495        3      -0.00000000      -0.00000000       0.01887835
Si       5.75938473       3.32518233      11.13501196        3       0.00000000       0.00000000       0.05446287
Si       3.83958982       2.21678822      15.05377691        2      -0.00000000       0.00000000      -0.05446287
Si       7.67917964       4.43357643      14.27002392        2       0.00000000       0.00000000      -0.01887835
Si       5.75938473       5.54197054      15.05377691        2      -0.00000000      -0.00000000      -0.05446287
Si       5.75938473       1.10839411      14.27002392        2       0.00000000      -0.00000000      -0.01887835
Si       7.67917964       2.21678822      15.05377691        2      -0.00000000      -0.00000000      -0.05446287
Si       3.83958982       4.43357643      14.27002392        2       0.00000000      -0.00000000      -0.01887835
Si       9.59897455       5.54197054      15.05377691        2      -0.00000000       0.00000000      -0.05446287
Si       1.91979491       1.10839411      14.27002392        2       0.00000000       0.00000000      -0.01887835
Si       3.83958982       6.65036465      18.18878888        1       0.00000000      -0.00000000       0.12372205
Si       3.83958982       2.21678822      17.40503589        1       0.00000000      -0.00000000       0.11641392
Si       1.91979491       3.32518233      18.18878888        1       0.00000000       0.00000000       0.12372205
Si       5.75938473       5.54197054      17.40503589        1      -0.00000000      -0.00000000       0.11641392
Si       7.67917964       6.65036465      18.18878888        1       0.00000000       0.00000000       0.12372205
Si       7.67917964       2.21678822      17.40503589        1      -0.00000000      -0.00000000       0.11641392
Si       5.75938473       3.32518233      18.18878888        1       0.00000000       0.00000000       0.12372205
Si       9.59897455       5.54197054      17.40503589        1      -0.00000000       0.00000000       0.11641392
