8
Lattice="5.172576173110817 0.0 0.0 0.0 5.172576173110817 0.0 0.0 0.0 5.172576173110817" Properties=species:S:1:pos:R:3:forces:R:3 config_type=bulk energy=-40.59675795155228 virial="19.599866493319624 1.8715895312132527 10.335572541304703 1.8715895312132527 18.92205259191668 1.0226537466198538 10.335572541304703 1.0226537466198538 21.45959424271253" label_model=mpa-0 structure_key=442b4e0e3802631411e6e6ced6b5553def82b860d246ec47b2778dd4d8e25009 pbc="T T T"
Si      -0.09429804       0.01306703      -0.02197532       1.81372780      -2.32449427       1.69647106
Si       1.31739782       1.22092926       1.31003495      -0.97928876       2.36878962      -1.57469466
Si      -0.06078325       2.59424258       2.65864073      -0.05074768      -1.23619301      -1.64044070
Si       1.29922542       3.84407307       3.76873283      -0.39537722       1.06297192       1.70106198
Si       2.55635635       0.05154332       2.60202701       0.35770700      -1.04660635      -0.25196362
Si       3.88618237       1.17823961       3.87610654      -0.87749673       2.23174514      -0.13515675
Si       2.70177924       2.73073783      -0.05824696      -2.86707312      -3.82968546      -2.27651430
Si       3.72073103       3.78564094       1.31502817       2.99854871       2.77347240       2.48123698
8
Lattice="5.5134139768268 0.0 0.0 0.0 5.5134139768268 0.0 0.0 0.0 5.5134139768268" Properties=species:S:1:pos:R:3:forces:R:3 config_type=bulk energy=-42.31968011100855 virial="-1.9383436862498717 0.10688227146554241 3.8140175838524253 0.10688227146554241 -0.11529151613605215 -2.9297114011252665 3.8140175838524253 -2.9297114011252665 0.6369077481319125" label_model=mpa-0 structure_key=b700968096c8043592e898e2c7c21f1be157c0cd4bd3d6df3aa151a2f30d032b pbc="T T T"
Si      -0.01466855       0.01175301       0.01540400       0.46958863       0.62730500      -0.44168957
Si       1.51203928       1.42222416       1.39960733      -2.07324285      -0.48573397       0.34118203
Si      -0.12121985       2.80920337       2.66683525       1.24287006      -2.06741498       1.61444666
Si       1.31579454       4.05918069       4.13563081      -0.78410547       1.57149065      -1.17310524
Si       2.79529242       0.05833883       2.78378131      -0.96064105      -2.44069303      -1.17236477
Si       3.93321250       1.32249968       4.13015885       1.98180085       1.99281496       1.43311390
Si       2.56497704       2.83714016       0.00658387       2.31137439      -0.40896355       0.06538564
Si       4.23392684       4.10540188       1.33219459      -2.18764455       1.21119493      -0.66696865
8
Lattice="5.331220958818738 0.0 0.0 0.0 5.331220958818738 0.0 0.0 0.0 5.331220958818738" Properties=species:S:1:pos:R:3:forces:R:3 config_type=bulk energy=-42.59348937767754 virial="8.156098980529125 -1.945674866612395 -0.5339214530101126 -1.945674866612395 8.907162972987392 2.249848912112647 -0.5339214530101126 2.249848912112647 7.906235407266916" label_model=mpa-0 structure_key=9f4e7fcfc8af7794a4f54799dbf6e6bbccde173621a63824e61e8965f4cc9d17 pbc="T T T"
Si       0.07440531      -0.01062873       0.09763443      -1.95224194      -0.39294523      -0.40542063
Si       1.33099907       1.37318634       1.30604917      -0.51103809       0.48109166       0.75173665
Si      -0.07085321       2.69724238       2.65415618       0.51201307      -0.46933875       0.43479201
Si       1.27632054       3.99549677       4.02637369       0.57541275       0.07934964      -0.50291166
Si       2.62169529       0.03170614       2.58410071      -0.76957356       0.69457718       2.15791531
Si       3.96641059       1.35774735       4.02565043       0.58444133      -1.00402907      -0.05015807
Si       2.64653886       2.64252588       0.01942861       0.08881894       0.80182466      -0.46112678
Si       3.85412880       3.98582877       1.46148729       1.47216750      -0.19053009      -1.92482683
8
Lattice="5.662830520076704 0.0 0.0 0.0 5.662830520076704 0.0 0.0 0.0 5.662830520076704" Properties=species:S:1:pos:R:3:forces:R:3 config_type=bulk energy=-41.54622596358759 virial="-6.703335106110905 -2.760441381626215 -1.2647874053931918 -2.760441381626215 -8.37994553612099 2.054137105223283 -1.2647874053931918 2.054137105223283 -7.060358429137461" label_model=mpa-0 structure_key=90630d4fa21c47e93139dcf058430ff72fd095aa355d7e923adf866d8930f235 pbc="T T T"
Si       0.01592020       0.08310356       0.00601262      -0.63037207      -0.65263470       0.35842516
Si       1.50942440       1.43526977       1.51828003       0.01638520      -0.95056422      -1.84348084
Si       0.13377357       2.72179149       2.76143458      -1.76592793       0.83752048       0.86783722
Si       1.32737211       4.17455727       4.17615760       0.43360980       0.95729593       0.63300720
Si       2.73784746      -0.04697637       2.80249566       1.49774084      -0.29565795       0.98759222
Si       4.22659519       1.68622355       4.36827800       1.55960882      -3.12303240      -2.13555982
Si       2.83362585       2.80178654      -0.05183248      -1.94315958       1.14098714       1.08811892
Si       4.18456359       3.99954151       1.42481959       0.83211491       2.08608573       0.04405995
8
Lattice="5.597858948352834 0.0 0.0 0.0 5.597858948352834 0.0 0.0 0.0 5.597858948352834" Properties=species:S:1:pos:R:3:forces:R:3 config_type=bulk energy=-41.84642537271493 virial="-4.312144172829254 1.137324136389412 -5.046074240905759 1.137324136389412 -5.909703087471512 -1.218586374730499 -5.046074240905759 -1.218586374730499 -5.651517657802653" label_model=mpa-0 structure_key=3a686ac6c7f3b35c87e0b10d884dc2eefc00297c9b85d2a81913d179a20d7c18 pbc="T T T"
Si      -0.08030364      -0.09015126      -0.05440668      -0.00602338       1.91921505       0.63074243
Si       1.40435094       1.61957187       1.33143207      -1.28394216      -2.00070954       0.67485811
Si      -0.11145239       2.87410759       2.82973357       2.73569967       2.01807251      -0.86782259
Si       1.54047393       4.31769819       4.41707964      -0.34265428      -1.34933509      -1.14713989
Si       2.76414682       0.07715394       2.81265988      -0.81710759       0.70203313      -0.08627696
Si       4.21085481       1.55569479       3.98397715      -0.65144709      -2.56134029       2.06539452
Si       2.96286111       2.67487639       0.04637528      -0.24035007       1.68377143      -0.41299852
Si       4.08936803       4.27228561       1.50419346       0.60582489      -0.41170721      -0.85675710
8
Lattice="5.268289099187584 0.0 0.0 0.0 5.268289099187584 0.0 0.0 0.0 5.268289099187584" Properties=species:S:1:pos:R:3:forces:R:3 config_type=bulk energy=-42.20556428683422 virial="12.550907180513958 -1.7853751643096363 3.6409461818692965 -1.7853751643096363 12.495831751192897 0.7429566311502339 3.6409461818692965 0.7429566311502339 12.623219110511812" label_model=mpa-0 structure_key=30745e1f11ba9d40f611f607ac176172164f9bc79039b7622c506fcfb11c1c29 pbc="T T T"
Si      -0.05665698       0.02415800      -0.03213303       1.10631226      -0.82911097       1.49557332
Si       1.30483226       1.31576677       1.34427666      -0.03634230       0.45656720      -1.03685957
Si       0.00899378       2.67593449       2.61260593      -0.16003676      -1.63294188       1.02006654
Si       1.23195041       4.02279618       3.88418985       1.60940042      -0.45682615       1.06373911
Si       2.63406474       0.06880465       2.62544720       0.05403502      -0.99574260      -0.05153602
Si       3.94331945       1.24312191       4.00292895      -0.34078554       2.04134676      -1.10559998
Si       2.72185832       2.65871938       0.05548326      -1.57791435       0.05949712      -0.94161463
Si       3.99637945       3.92798664       1.37429838      -0.65466875       1.35721053      -0.44376877
8
Lattice="5.108698249276077 0.0 0.0 0.0 5.108698249276077 0.0 0.0 0.0 5.108698249276077" Properties=species:S:1:pos:R:3:forces:R:3 config_type=bulk energy=-40.62676698810807 virial="24.43980998975476 -1.7676986988107055 1.1139814274107014 -1.7676986988107055 24.413565808750715 0.1417716725786947 1.1139814274107014 0.1417716725786947 24.26329583627755" label_model=mpa-0 structure_key=0c2a61597573373879dcb08dc3d9a7aff1f59b1466d347a3b53fc80b076aaaee pbc="T T T"
Si      -0.06689016      -0.04068249      -0.03049320       2.05345046       0.89792475       0.46225863
Si       1.34102956       1.29552132       1.34652385      -1.14072031       0.18989159      -2.66297898
Si      -0.01404557       2.51964402       2.52155830      -0.49952813       1.08005779      -0.00847660
Si       1.29121160       3.79964294       3.81824466      -0.21187267       0.57684640      -0.48547864
Si       2.58035934       0.06939659       2.53689859      -0.41990143      -2.49507381       0.20994439
Si       3.82294828       1.23133133       3.78836025       1.21935615       0.63767176       0.37570596
Si       2.62286482       2.53595181      -0.07976505      -1.18052733      -0.46392930       0.62204442
Si       3.77836070       3.84177455       1.20637125       0.17974326      -0.42338917       1.48698083
8
Lattice="5.438023565884973 0.0 0.0 0.0 5.438023565884973 0.0 0.0 0.0 5.438023565884973" Properties=species:S:1:pos:R:3:forces:R:3 config_type=bulk energy=-41.95604861424263 virial="3.8476963076842616 4.594545375902647 -4.193716405080356 4.594545375902647 3.9203727363509393 -4.098719179736633 -4.193716405080356 -4.098719179736633 3.8227906496585726" label_model=mpa-0 structure_key=9ba7e47c88e4c2b3cd07c1048de7afddd264e94db2cd36cd5fbde080c1780a36 pbc="T T T"
Si       0.05666574      -0.10277931      -0.01274341      -0.51546390       1.47169268      -0.00919397
Si       1.51314532       1.28797390       1.32224712      -3.34827372      -1.05931741       1.80882105
Si      -0.03846831       2.81106058       2.81450295       0.87659480      -0.72151375      -2.49192422
Si       1.33866570       4.04155532       4.02893371       0.69470427      -1.00413004       2.26829894
Si       2.59825236      -0.09373749       2.76806697       1.85589932       1.72548418       0.18109460
Si       4.14910671       1.48023035       4.03504739      -1.44307308      -2.30335638       1.44993096
Si       2.70974861       2.58375244       0.16304857       2.00696960       2.84245138      -2.43767239
Si       4.06787887       4.16904228       1.45993731      -0.12735728      -0.95131065      -0.76935497
8
Lattice="5.639974633774585 0.0 0.0 0.0 5.639974633774585 0.0 0.0 0.0 5.639974633774585" Properties=species:S:1:pos:R:3:forces:R:3 config_type=bulk energy=-42.938055982948654 virial="-7.661688335543832 -0.20903410876087275 -0.22764294824322565 -0.20903410876087275 -7.667295922178149 -0.0333696574427079 -0.22764294824322565 -0.0333696574427079 -7.694225252959737" label_model=mpa-0 structure_key=04ebe32ede541fb80417c6b1e2502fcb11cd9824c076ab5b32d103c0c7803bd8 pbc="T T T"
Si      -0.00623093      -0.00412223      -0.00191140       0.05206807       0.01788529       0.05863565
Si       1.39847722       1.43448878       1.39543943       0.00533648      -0.22152801       0.07529035
Si      -0.01637832       2.81363181       2.80875245       0.01256614       0.03880386       0.17660855
Si       1.39141319       4.23596368       4.20957225       0.11668040      -0.05317260       0.03747505
Si       2.81775983       0.00941991       2.80235671      -0.03687758       0.09025360       0.18864417
Si       4.22746735       1.41447417       4.27005845      -0.07772291      -0.06347578      -0.32817284
Si       2.80719603       2.81567983       0.00692733       0.02156791       0.24162160      -0.05977154
Si       4.23068063       4.23624167       1.42427211      -0.09361851      -0.05038797      -0.14870940
8
Lattice="5.672749205874315 0.0 0.0 0.0 5.672749205874315 0.0 0.0 0.0 5.672749205874315" Properties=species:S:1:pos:R:3:forces:R:3 config_type=bulk energy=-42.126107921168014 virial="-8.322147448629211 2.920661031451703 0.6141807566679758 2.920661031451703 -8.698473213420202 0.5875957574017711 0.6141807566679758 0.5875957574017711 -9.093014365478826" label_model=mpa-0 structure_key=46a5657da02582111198f7c4d1656ba4f3e7422700ea1608240ae7bc9905e481 pbc="T T T"
Si       0.00407422      -0.09872243      -0.08574323       0.31424332       0.97875169       0.07531841
Si       1.50081951       1.32109554       1.37385698      -0.62621145       0.85783209       0.49282149
Si      -0.01078887       2.97182698       2.92467917      -0.36750564      -1.71054321      -2.05788464
Si       1.38159759       4.23808274       4.16164841       1.17227085      -0.17223788       1.73140949
Si       2.81223246      -0.03331919       2.93466088       0.16050837       0.11327261      -1.43385210
Si       4.27098019       1.35843905       4.15433234       0.36306524       0.65382734       0.99568512
Si       2.97991673       2.81334878       0.03863995      -0.98103202      -0.28290642      -0.78662677
Si       4.26736985       4.33386625       1.35434890      -0.03533867      -0.43799623       0.98312899
8
Lattice="5.235866575551861 0.0 0.0 0.0 5.235866575551861 0.0 0.0 0.0 5.235866575551861" Properties=species:S:1:pos:R:3:forces:R:3 config_type=bulk energy=-42.39506541876285 virial="13.697251197388338 1.4459783199232337 0.44426274965405294 1.4459783199232337 13.767977435601765 -2.293252501269145 0.44426274965405294 -2.293252501269145 13.748772794639507" label_model=mpa-0 structure_key=e4f85979087a8563ffada30654df8c6f39406e81af421813eace1f10b922f8b2 pbc="T T T"
Si       0.02298118      -0.04176921       0.00792707       0.49094357       0.47497702      -0.57378382
Si       1.31815562       1.31525267       1.28428476      -0.68902348       0.22836545       0.56992711
Si      -0.07016000       2.62550643       2.63817250       0.34793543      -0.57156181      -0.46803460
Si       1.31002445       3.87698110       3.89798015      -0.25999722       0.34208556      -0.03440591
Si       2.57321493       0.01599183       2.63289600       0.68088547      -0.11187785      -0.17248650
Si       3.91728123       1.29641134       3.98212952      -0.21602878      -0.14636579      -0.10401251
Si       2.59095196       2.64669700       0.01517703       0.54951642      -0.11329284      -0.00008357
Si       3.95201322       3.95772949       1.27685380      -0.90423142      -0.10232974       0.78287981
8
Lattice="5.068935104399379 0.0 0.0 0.0 5.068935104399379 0.0 0.0 0.0 5.068935104399379" Properties=species:S:1:pos:R:3:forces:R:3 config_type=bulk energy=-37.04037744194079 virial="26.081162724464335 4.959099812660984 0.1329606217099819 4.959099812660984 34.25263776340594 -11.000339194290213 0.1329606217099819 -11.000339194290213 33.724694634571165" label_model=mpa-0 structure_key=1f5868da0cfbb37ae50aa6bb1a9520b8be5bc23106ff279a33da348ab25d78a1 pbc="T T T"
Si      -0.27803088       0.10845105       0.07779606       9.37554123       5.90008183      -4.52614959
Si       1.30574821       1.29558240       1.45919355       0.78094812      -1.78744380      -1.71359204
Si      -0.01572101       2.49856870       2.59133020      -0.81277046       1.61407420      -0.34356986
Si       1.23897780       3.71947518       3.88869567      -0.71128840       3.13912117      -0.82974697
Si       2.76387437      -0.04178827       2.57496336      -3.70193178      -2.45446728      -0.95252441
Si       3.80188014       1.22936360       3.78728016      -1.74650076       4.71091171       0.62006962
Si       2.49762275       2.64532513       0.11751285       1.67309764      -1.72577348       0.69354358
Si       4.03320273       3.94213940       1.15731703      -4.85709559      -9.39650436       7.05196967
8
Lattice="5.829689340528228 0.0 0.0 0.0 5.829689340528228 0.0 0.0 0.0 5.829689340528228" Properties=species:S:1:pos:R:3:forces:R:3 config_type=bulk energy=-41.29155145966077 virial="-14.043228720341563 -0.0948653397290665 -0.9117951902763023 -0.0948653397290665 -14.487571262009316 -0.464990592836442 -0.9117951902763023 -0.464990592836442 -13.8951968992046" label_model=mpa-0 structure_key=3fa9f371936f925e968b8fb14e00a1aaac1e890a0e0c3f5d0ab3c27e8393c04b pbc="T T T"
Si      -0.18401401      -0.10744395       0.01359784       1.60646146       0.72739175      -0.46602092
Si       1.45000363       1.43586815       1.39096378      -0.79805857      -0.16522659       0.40894940
Si      -0.04302170       3.03638513       2.93364978       0.05061777      -1.17862902      -0.55864467
Si       1.47221845       4.28615168       4.28190650      -0.37125883       0.59315739       0.77046969
Si       2.91484767      -0.08656372       2.85518779      -0.60215255       1.34513443       0.79374271
Si       4.38097244       1.42894349       4.40470595      -0.46493542       0.11205628      -0.49365627
Si       2.85435728       2.87169999      -0.03408649       0.43871544       0.18771118       0.10593913
Si       4.28536684       4.48185581       1.49885406       0.14061071      -1.62159542      -0.56077906
8
Lattice="5.417454860610595 0.0 0.0 0.0 5.417454860610595 0.0 0.0 0.0 5.417454860610595" Properties=species:S:1:pos:R:3:forces:R:3 config_type=bulk energy=-42.07646523229265 virial="5.252206602349883 4.079682345878643 6.033180125081636 4.079682345878643 4.387914666579071 3.839968862826701 6.033180125081636 3.839968862826701 5.071836132024373" label_model=mpa-0 structure_key=19381d6585f5de1154a16c093031e0c4640e97bee4a9c3042382fd71623c6f79 pbc="T T T"
Si       0.04154488       0.14989192       0.08212259      -2.14689337      -3.05000004      -2.69168424
Si       1.33143032       1.22442301       1.33879550       1.82947819       3.13561619       1.40969212
Si       0.07795722       2.72502620       2.75507547      -2.20515389      -2.38369043      -1.53818055
Si       1.32281929       3.97869329       3.93932581       0.94018797       1.75430992       3.24383148
Si       2.60187224      -0.05887836       2.69859878       1.69376576      -0.15735342      -0.12934078
Si       3.95474736       1.35009398       4.11924639       1.10809969      -0.32318028      -1.02961666
Si       2.77585780       2.74357181       0.01576232      -1.92864832      -0.46483930      -0.16558148
Si       4.09098758       3.98730553       1.32506302       0.70916397       1.48913736       0.90088011
8
Lattice="5.799365507834561 0.0 0.0 0.0 5.799365507834561 0.0 0.0 0.0 5.799365507834561" Properties=species:S:1:pos:R:3:forces:R:3 config_type=bulk energy=-41.90132144192493 virial="-13.737844671576397 -0.028519231676927603 1.0025204657834745 -0.028519231676927603 -13.901209264343988 0.4012881265256116 1.0025204657834745 0.4012881265256116 -13.795531020485017" label_model=mpa-0 structure_key=cc2a3169933f1533a610a9c729db909b92545a96eb12a2dc2c9eb145d2d2f0e4 pbc="T T T"
Si       0.02603003       0.01364612      -0.06968665      -0.19808852      -0.29764714       0.75170998
Si       1.45139579       1.44936918       1.47467618       0.02972582       0.28735765      -0.09328759
Si      -0.00707432       2.95174260       2.95925677       0.03531767      -0.64666850      -0.33076020
Si       1.47678874       4.33770046       4.35091335       0.06704238       0.41815875       0.06294962
Si       2.94547214       0.02201935       2.93875038      -0.41773889      -0.26528611      -0.30353295
Si       4.34220018       1.43441292       4.35692272       0.18737323       0.53858423       0.19078085
Si       2.91984129       2.97128326       0.03441002      -0.25824285      -0.82606045      -0.05015505
Si       4.32084479       4.30589408       1.49445418       0.55461116       0.79156157      -0.22770464
8
Lattice="5.72897578748717 0.0 0.0 0.0 5.72897578748717 0.0 0.0 0.0 5.72897578748717" Properties=species:S:1:pos:R:3:forces:R:3 config_type=bulk energy=-42.14654028085841 virial="-11.101747419529305 -1.2868991597445707 1.913954400352903 -1.2868991597445707 -11.550351520372516 -0.8704907628361664 1.913954400352903 -0.8704907628361664 -11.34534787820046" label_model=mpa-0 structure_key=1ba2138350a744b2d9bd4d8a80291d369eaace63fa4af0505134d24486558e9a pbc="T T T"
Si      -0.05584536       0.02045462       0.04341947       0.57260963      -0.49215373      -0.27494206
Si       1.51438193       1.38156741       1.42444265      -0.77373097       0.95263470      -0.80921063
Si       0.03835247       2.88147568       2.82532549       0.67631556      -0.65937120       0.60214212
Si       1.49436427       4.27968163       4.28461728      -0.56057039       1.04436971      -0.29962182
Si       2.90613530       0.09558028       2.75970229       0.37321881      -1.15981542       1.10431957
Si       4.30474329       1.49636223       4.26380010       0.11020133      -0.16603994       0.00789641
Si       2.90005659       2.93970143      -0.06323631       0.07412814      -0.73517852       0.59905957
Si       4.34346271       4.18793323       1.51431492      -0.47217211       1.21555439      -0.92964316
8
Lattice="5.083718238960749 0.0 0.0 0.0 5.083718238960749 0.0 0.0 0.0 5.083718238960749" Properties=species:S:1:pos:R:3:forces:R:3 config_type=bulk energy=-38.05833792171809 virial="29.41082441781756 5.08453902551704 -11.32819722041479 5.08453902551704 23.342326512109963 8.298528978402873 -11.32819722041479 8.298528978402873 30.845004994560462" label_model=mpa-0 structure_key=0415da39ddf250b5da53473dcb6140d83ce0fab71569c1e11022a4979309d1e3 pbc="T T T"
Si       0.15257602      -0.07906779      -0.05782715      -4.83572801       3.64090760       6.24490023
Si       1.25357927       1.45553728       1.30606130       0.21510198      -3.25064664      -0.07605148
Si       0.18584167       2.50454180       2.80544701      -2.60299666       0.14277681      -0.13425204
Si       1.24116479       4.15956977       3.70197499       1.92461180      -5.23675793      -0.72501462
Si       2.61108171      -0.14176932       2.49449532       1.50259963       2.95377459      -3.95547764
Si       3.76462560       1.13291702       3.78035142       0.26280794       1.90290946       1.87123346
Si       2.47241092       2.66100809       0.06840312      -0.57221147      -0.62299585      -4.43305246
Si       3.82684454       3.66410369       1.26131211       4.10581479       0.47003195       1.20771455
8
Lattice="5.616969724059536 0.0 0.0 0.0 5.616969724059536 0.0 0.0 0.0 5.616969724059536" Properties=species:S:1:pos:R:3:forces:R:3 config_type=bulk energy=-42.80943974546359 virial="-6.609151749201736 1.0600889260837387 0.1771624422253418 1.0600889260837387 -6.563891428261089 -0.2863558308210791 0.1771624422253418 -0.2863558308210791 -6.689867089649193" label_model=mpa-0 structure_key=8997f8891d360a2ef8cb3e1eb0b8bf6c5be128967cebbd2fd8b6cbeb3d5a9da5 pbc="T T T"
Si       0.00064997      -0.01579860      -0.00047636      -0.29853162      -0.18676375      -0.56053667
Si       1.38467850       1.36610185       1.30882269      -0.02217473       0.48687259       0.49778235
Si       0.04699987       2.75103008       2.83284796      -0.39018124       0.55689741      -0.72231079
Si       1.46418658       4.21465962       4.19237493      -0.72952981       0.04004698      -0.01446347
Si       2.71640770       0.09123189       2.83149222       0.72751336      -0.73557132      -0.79064642
Si       4.17659827       1.40975924       4.17083953       0.44948550      -0.14571216       0.22093968
Si       2.78536598       2.78595670      -0.08848979       0.29100842       0.14958177       0.50663328
Si       4.18365520       4.21841005       1.33302846      -0.02758988      -0.16535152       0.86260204
8
Lattice="5.842734747201085 0.0 0.0 0.0 5.842734747201085 0.0 0.0 0.0 5.842734747201085" Properties=species:S:1:pos:R:3:forces:R:3 config_type=bulk energy=-40.78604728660219 virial="-15.178127240671614 -1.8806947606428643 -0.3989524551547833 -1.8806947606428643 -14.078645164871766 -0.9073379241749774 -0.3989524551547833 -0.9073379241749774 -13.688199371840948" label_model=mpa-0 structure_key=f0bfd61d5d1e17066ba6250a6aa891942a14b29880b13452604d62b7eb19f331 pbc="T T T"
Si       0.10338176       0.11434110       0.09021923      -0.89740061       0.50102259       1.14266278
Si       1.65172046       1.63174385       1.67759868      -1.63914182      -0.81153061      -0.05542063
Si      -0.09340054       3.16339560       2.95107563       0.73997707      -1.32021945       0.86313077
Si       1.35213706       4.47343818       4.55238984       0.02154303       0.25391930      -1.11579318
Si       2.99573793      -0.02975076       3.07270532      -0.41159078       0.79916143       0.49134500
Si       4.39626174       1.55846109       4.46307773      -0.16818662       0.10164619       0.08105897
Si       2.62372372       2.97333714       0.02793871       2.18060912      -0.01157665       0.30848128
Si       4.25325983       4.40076044       1.62503329       0.17419060       0.48757721      -1.71546499
8
Lattice="5.5193605320784584 0.0 0.0 0.0 5.5193605320784584 0.0 0.0 0.0 5.5193605320784584" Properties=species:S:1:pos:R:3:forces:R:3 config_type=bulk energy=-42.490674574573326 virial="-1.8874905035864276 -1.1848540626745783 0.8154832975696186 -1.1848540626745783 -1.020389813628068 -4.520245693056997 0.8154832975696186 -4.520245693056997 -1.2079609659743096" label_model=mpa-0 structure_key=c98a501805ba0b3f4cfaa0684f54b5b859b82b88c78692d51c5eac4af7f1fcda pbc="T T T"
Si      -0.10790098      -0.00787189       0.02355111       2.05872786       0.10007970      -0.47740936
Si       1.52099648       1.29339203       1.35957416      -2.77354274       1.02093856      -0.57189228
Si      -0.05094460       2.66121876       2.76702729       1.12192357       0.29644479       0.09176390
Si       1.42946080       4.15713998       4.13471962      -0.84968363       0.06555021      -0.47052579
Si       2.76748498       0.09424470       2.67279968       1.76224451      -2.15618475       1.56492762
Si       4.09529667       1.39343853       4.27409674       0.06802979      -0.34728281      -1.60275910
Si       2.71792029       2.69630104      -0.00137170       0.11294227       1.26639168       0.08440166
Si       4.24707491       4.05829882       1.27165702      -1.50064164      -0.24593738       1.38149335
8
Lattice="5.490886811292835 0.0 0.0 0.0 5.490886811292835 0.0 0.0 0.0 5.490886811292835" Properties=species:S:1:pos:R:3:forces:R:3 config_type=bulk energy=-43.1129925224573 virial="-0.926925275514991 1.2852604217129142 1.4032079741261239 1.2852604217129142 -0.9539633054689446 0.878108103509524 1.4032079741261239 0.878108103509524 -0.9912616583410208" label_model=mpa-0 structure_key=3f98abd62ad9dae57a3227f9affd67eea4dc411466b414ee0efadbf20ce75444 pbc="T T T"
Si      -0.01708003      -0.01997381       0.01549961      -0.06856137      -0.60634249      -0.38470751
Si       1.25483113       1.35348085       1.34448797       1.10046308       0.20921986       0.50555778
Si       0.01524830       2.74636238       2.76685398      -0.37007576      -0.19654094       0.03268348
Si       1.39190147       4.13039289       4.06369096       0.12192635       0.21493672       0.47205504
Si       2.77626305       0.06641171       2.77288265      -0.13930671      -0.44397810      -0.68986471
Si       4.12781416       1.37111504       4.19285998      -0.09407023       0.35576615      -0.27734756
Si       2.72660446       2.77042690       0.04513713      -0.63404721      -0.60816015      -0.58834357
Si       4.11763683       4.02298185       1.33074634       0.08367185       1.07509895       0.92996706
8
Lattice="5.445410406909763 0.0 0.0 0.0 5.445410406909763 0.0 0.0 0.0 5.445410406909763" Properties=species:S:1:pos:R:3:forces:R:3 config_type=bulk energy=-43.26390194951354 virial="1.2161781263189704 -0.3102399987670526 0.331090035190083 -0.3102399987670526 1.1920160151933958 -0.25758879847050026 0.331090035190083 -0.25758879847050026 1.162306067512721" label_model=mpa-0 structure_key=267d8fd11ad76fa1efc3ab251a0cf203d2c41fe6f829f9c8863092da0a7e7c53 pbc="T T T"
Si      -0.00884734       0.00701674      -0.00997342       0.29914960      -0.26677476       0.01386800
Si       1.36822415       1.36097707       1.33240961      -0.11703032       0.18862703       0.17995319
Si      -0.01426531       2.75663466       2.72893321       0.26014731      -0.36434384      -0.26976689
Si       1.37386967       4.06566715       4.05770324       0.07111169       0.42046742       0.09882224
Si       2.74144470       0.01207594       2.68487681      -0.02230400       0.07699823       0.35450552
Si       4.11935686       1.38792592       4.10957373      -0.21978417      -0.31115401      -0.52142094
Si       2.74552882       2.71354176      -0.03376380      -0.24805180       0.14294430       0.26055913
Si       4.08343664       4.07678914       1.35027823      -0.02323832       0.11323563      -0.11652026
8
Lattice="5.815008663901194 0.0 0.0 0.0 5.815008663901194 0.0 0.0 0.0 5.815008663901194" Properties=species:S:1:pos:R:3:forces:R:3 config_type=bulk energy=-41.39393122693009 virial="-13.533873892927907 -1.0706502416724708 0.047989644325311165 -1.0706502416724708 -14.027508777983128 -0.17962126139177315 0.047989644325311165 -0.17962126139177315 -14.436941252183622" label_model=mpa-0 structure_key=536da3777194c87a034de19fdde53a85d2f2a773f3b0892b8841d2f3b901b87d pbc="T T T"
Si      -0.07350545      -0.06242495       0.09423733      -0.38911297       0.06630073       0.06661180
Si       1.44365606       1.45520366       1.30646636      -0.47374503      -0.21388665       0.95589819
Si      -0.06346282       2.90640868       2.80486568       0.83935283      -0.39260075       1.42291832
Si       1.33996280       4.39727081       4.51975853       0.62365536      -0.42955030      -1.35586274
Si       2.82395928       0.10724802       2.88924470       0.05173169      -0.77794101       0.80728237
Si       4.37447595       1.46896912       4.42516744      -0.04968497      -0.33907314      -0.76914790
Si       2.91713380       2.80702668       0.02647434      -0.17605319       0.98345827      -0.23744308
Si       4.26623584       4.23385657       1.60179089      -0.42614371       1.10329284      -0.89025697
8
Lattice="5.149241048882744 0.0 0.0 0.0 5.149241048882744 0.0 0.0 0.0 5.149241048882744" Properties=species:S:1:pos:R:3:forces:R:3 config_type=bulk energy=-39.39795169724951 virial="21.846280777107534 -2.1627757408760155 -1.3826770953982293 -2.1627757408760155 24.025353246762915 10.652589225771738 -1.3826770953982293 10.652589225771738 22.293394254784314" label_model=mpa-0 structure_key=895235ddfe947d9c6ae7c4b5df9157c97f85f14fdff4cb24f95a4c1bfdeb883e pbc="T T T"
Si       0.09296094      -0.04717951      -0.20319174      -2.87098364       3.15849280       4.22966383
Si       1.29797390       1.24020513       1.42291398       0.97401022      -0.44290731      -2.44395051
Si       0.12499535       2.59261482       2.65085236      -4.28919554      -1.32295510      -2.84939443
Si       1.20143303       3.82753320       3.84634820       1.78837037      -0.75594947       0.45364079
Si       2.54820427      -0.16363634       2.71260702       0.23730751       1.94415604      -0.93769052
Si       3.77492572       1.28686423       3.82525464       1.47986250       0.05370964      -0.26393996
Si       2.60173014       2.69820071      -0.14198547      -1.06987819      -2.35231289       1.81077361
Si       3.67952662       3.94238056       1.22774088       3.75050677      -0.28223371       0.00089719
8
Lattice="5.623705301725003 0.0 0.0 0.0 5.623705301725003 0.0 0.0 0.0 5.623705301725003" Properties=species:S:1:pos:R:3:forces:R:3 config_type=bulk energy=-42.96337517651996 virial="-6.914133867380494 0.2756021084256596 0.22621710801279138 0.2756021084256596 -6.953512313567911 -0.29446275413279704 0.22621710801279138 -0.29446275413279704 -6.97473394891242" label_model=mpa-0 structure_key=5e154f5cce09b9cbf4e278de61c13663ab2de28c3c1e14e510660cb45957d745 pbc="T T T"
Si      -0.01188999       0.02858436      -0.01956610       0.04336107      -0.19252412       0.03314397
Si       1.40135330       1.40319947       1.40621672      -0.22584141       0.11162034       0.07721858
Si      -0.00813545       2.84419690       2.85294989      -0.12650227      -0.38195647      -0.47912596
Si       1.38728801       4.20237421       4.17717066       0.05787220       0.30795700       0.46285123
Si       2.77473826      -0.03745026       2.77498357       0.33363886       0.34313596       0.22552026
Si       4.21013054       1.42750884       4.22276518      -0.33226370      -0.12880694      -0.07733439
Si       2.77070365       2.82974493       0.01815427       0.24102174      -0.11380096      -0.18440583
Si       4.21419523       4.21819285       1.40013989       0.00871351       0.05437520      -0.05786784
8
Lattice="5.766260399522948 0.0 0.0 0.0 5.766260399522948 0.0 0.0 0.0 5.766260399522948" Properties=species:S:1:pos:R:3:forces:R:3 config_type=bulk energy=-42.26044589003633 virial="-12.666555531689715 0.21997924717734615 0.12481144228711619 0.21997924717734615 -12.664291295277494 0.09503433512005012 0.12481144228711619 0.09503433512005012 -12.667820416571693" label_model=mpa-0 structure_key=6c72052cb97ab479e6968939e5a1f4e40aef4844fee8ed360d967ca16976ae46 pbc="T T T"
Si      -0.00815185       0.02110004       0.00904844       0.06989594      -0.11133733      -0.10328290
Si       1.43356821       1.43106832       1.45135475       0.14535203       0.15037860       0.06009765
Si      -0.00369593       2.89868352       2.88932783      -0.04368769      -0.14407194      -0.12662191
Si       1.41544968       4.32485643       4.31593736       0.19386806       0.03531402       0.20308557
Si       2.89028645      -0.00767357       2.90905382      -0.09993643      -0.00313280      -0.21961738
Si       4.32258271       1.43545719       4.32535829       0.00190379       0.14961038       0.05027005
Si       2.88865486       2.88366775      -0.00037613      -0.12299862       0.00264869      -0.00102890
Si       4.33934098       4.34164601       1.42938744      -0.14439708      -0.07940963       0.13709781
8
Lattice="5.366088261643009 0.0 0.0 0.0 5.366088261643009 0.0 0.0 0.0 5.366088261643009" Properties=species:S:1:pos:R:3:forces:R:3 config_type=bulk energy=-42.80038783598491 virial="5.909271350195421 -1.0383290185648195 -0.4070316343150483 -1.0383290185648195 6.29025468097018 -3.164348659267028 -0.4070316343150483 -3.164348659267028 5.904183351555771" label_model=mpa-0 structure_key=441c585d19d80de41256918f371c1139fae4c6e3f851c6b38c078ae463070f4c pbc="T T T"
Si      -0.05620977       0.05034168      -0.04156187       1.21135770      -0.91764458       0.91817813
Si       1.37508564       1.35781006       1.31049047      -1.10016538      -1.00799174       1.35936365
Si      -0.09327218       2.70532294       2.61484679       0.87019618      -0.18685409       0.70156467
Si       1.37361974       4.02036986       4.06382142      -1.36361390      -0.01465717      -0.73464008
Si       2.70739361      -0.01019782       2.77360829      -0.08858271       0.35077673      -0.73683240
Si       4.01559206       1.35496407       4.12105782      -0.29619518       0.79136372      -1.47460299
Si       2.58529400       2.62932691      -0.00816351       1.12803164       0.93405375       0.06911108
Si       3.97528198       4.04826454       1.29669906      -0.36102835       0.05095337      -0.10214206
8
Lattice="5.099266521370004 0.0 0.0 0.0 5.099266521370004 0.0 0.0 0.0 5.099266521370004" Properties=species:S:1:pos:R:3:forces:R:3 config_type=bulk energy=-39.036412425719305 virial="26.729894156447745 -8.40914281201096 -0.09322398109378051 -8.40914281201096 27.326014147993973 2.611798525503461 -0.09322398109378051 2.611798525503461 25.271345065630147" label_model=mpa-0 structure_key=85306bacd2778dc310cd6a7e96cd4db8e0edc992a3f5c6d1fa58e936107918a0 pbc="T T T"
Si      -0.06494923      -0.14292492      -0.06682052       3.09241094      -2.00420233       0.65641043
Si       1.21440294       1.22815739       1.14573562       0.71441935       0.17410651       0.01774375
Si       0.04620953       2.57797381       2.47987415       0.19367242      -1.40672486       1.60544376
Si       1.45067596       3.74184898       3.80117051      -0.59486804       0.70131173      -0.36855346
Si       2.64752135      -0.11969969       2.30983733      -4.97288151       5.85939693       5.20755893
Si       3.91688356       1.13746195       3.91371914      -2.21589494       2.58460756      -3.49567697
Si       2.72113230       2.58998692       0.07663813      -1.36340032      -2.57731576      -1.28663178
Si       3.81431761       3.84602371       1.33628176       5.14654210      -3.33117978      -2.33629466
8
Lattice="5.608361668277037 0.0 0.0 0.0 5.608361668277037 0.0 0.0 0.0 5.608361668277037" Properties=species:S:1:pos:R:3:forces:R:3 config_type=bulk energy=-42.96701008041087 virial="-6.380467580453114 0.029390516773553407 -0.6920891245957778 0.029390516773553407 -6.356184766828656 -0.6678227365963939 -0.6920891245957778 -0.6678227365963939 -6.23667473237925" label_model=mpa-0 structure_key=6e569c8c048c65add2f463e739b69e261ee6d67b2dcac9cc3473a0932aa52a1c pbc="T T T"
Si      -0.01865820      -0.01305764      -0.00515703       0.32233571       0.23318022       0.08169985
Si       1.41120527       1.39465581       1.39029176      -0.17701554      -0.04048290       0.10412890
Si      -0.09295364       2.73365344       2.78308556       0.75280169       0.62418778      -0.02535517
Si       1.35027769       4.25450590       4.20085280       0.12454703      -0.74500811      -0.32985495
Si       2.80975111      -0.01900374       2.78883738      -0.00389841       0.06534639       0.00635987
Si       4.23046586       1.36915985       4.21950326      -0.59782255       0.00957854      -0.08889140
Si       2.78469902       2.79324773      -0.01996019      -0.00586802       0.20641570      -0.14015893
Si       4.22100385       4.21175766       1.34113012      -0.41507990      -0.35321762       0.39207184
8
Lattice="5.048530556276565 0.0 0.0 0.0 5.048530556276565 0.0 0.0 0.0 5.048530556276565" Properties=species:S:1:pos:R:3:forces:R:3 config_type=bulk energy=-40.06946533902489 virial="28.621620795537737 -1.127576910122728 -1.3311580731478037 -1.127576910122728 28.851987565086038 -1.89875013613256 -1.3311580731478037 -1.89875013613256 28.677246956327387" label_model=mpa-0 structure_key=ed255e956cf8cf0b32ba69fb2eb45befc8a0e974b73dc45e1317f450c3355703 pbc="T T T"
Si      -0.07254677      -0.02434379       0.00320189       1.51576990      -0.30848390       0.61510544
Si       1.27081531       1.29047934       1.22571392       0.04548384      -0.84877502      -0.21105506
Si       0.01416518       2.50134255       2.52310843      -0.05200836      -0.44989512       0.36224194
Si       1.24908880       3.80933602       3.75147589      -0.42501945      -0.18457663       0.80923251
Si       2.52043329      -0.01035204       2.53987818      -0.04809979       1.19869378      -0.33506886
Si       3.80645696       1.24421410       3.82940281      -0.64682917       0.63237370      -1.02458022
Si       2.53864797       2.55616632      -0.02443608       0.09536131       0.50869270       0.18066987
Si       3.80161115       3.78966425       1.32966774      -0.48465828      -0.54802950      -0.39654561
8
Lattice="5.711594347854136 0.0 0.0 0.0 5.711594347854136 0.0 0.0 0.0 5.711594347854136" Properties=species:S:1:pos:R:3:forces:R:3 config_type=bulk energy=-42.27668598561941 virial="-10.571148746081207 -0.8878083881799211 0.5062901076243311 -0.8878083881799211 -10.373767073161538 -0.5615190218953083 0.5062901076243311 -0.5615190218953083 -10.350183870003919" label_model=mpa-0 structure_key=a6328e179840380645906766f3256ba8e6858a83776a719874c6bf135ee82c85 pbc="T T T"
Si      -0.05369805       0.05519362      -0.08516912       0.98182054      -0.87020684       0.72893543
Si       1.44388496       1.46811851       1.38353823      -0.32500080      -0.66492930       0.41602589
Si      -0.08929014       2.84740002       2.81955327       0.85303637      -0.42738951       0.40125336
Si       1.45675773       4.18902098       4.24929408      -0.39918916       0.86673774      -0.18776090
Si       2.99245539      -0.06142781       2.82781835      -1.33585853       0.50452381       0.38292626
Si       4.26512222       1.40352477       4.32777507      -0.33047810       0.51116141      -0.56694936
Si       2.81925330       2.87426404       0.03759047       0.36081502      -0.12436502      -0.20157697
Si       4.29292057       4.26834127       1.46368342       0.19485466       0.20446772      -0.97285370
8
Lattice="5.753330656168274 0.0 0.0 0.0 5.753330656168274 0.0 0.0 0.0 5.753330656168274" Properties=species:S:1:pos:R:3:forces:R:3 config_type=bulk energy=-41.703288820089824 virial="-12.012341984856926 2.2347519365596393 1.5675414934504117 2.2347519365596393 -11.78104711479065 0.09939725974094102 1.5675414934504117 0.09939725974094102 -12.140180917449928" label_model=mpa-0 structure_key=d2b233f1b3b4bf88001e1313f5740c2a29c58cd9e7854a5dd86c5da44f00fe6a pbc="T T T"
Si      -0.03953026      -0.04753248       0.03337794       0.13968944       0.13401160      -0.94479908
Si       1.40639097       1.36097058       1.31560013       0.54486731       0.84086275       1.27755759
Si      -0.03277770       2.97625988       2.96106736       0.47993935      -1.63476876      -1.24337395
Si       1.32406220       4.25592836       4.31311093       1.56394030       0.70427571       1.01040693
Si       2.87591029      -0.01463427       2.91177915      -0.45929696      -0.49585877      -0.90990181
Si       4.36013089       1.38843024       4.16386802      -0.32291964       0.35363341       1.44005040
Si       2.98595356       2.85530651       0.03613325      -0.60946513      -0.36436131      -0.77914255
Si       4.44689706       4.27449217       1.47337911      -1.33675468       0.46220538       0.14920248
8
Lattice="5.364719559900801 0.0 0.0 0.0 5.364719559900801 0.0 0.0 0.0 5.364719559900801" Properties=species:S:1:pos:R:3:forces:R:3 config_type=bulk energy=-43.14054335138931 virial="5.390496818136994 0.36348837442242715 -0.0428013804318803 0.36348837442242715 5.382340755837148 -0.5591398583530534 -0.0428013804318803 -0.5591398583530534 5.418744461626703" label_model=mpa-0 structure_key=1d455bd728b9d9a053ee9ae2c59b0689375e8c004c11ce7436ca3c28ba4d6ab6 pbc="T T T"
Si       0.01114999       0.02913846      -0.00263263      -0.21851499      -0.36016919      -0.24699230
Si       1.33083036       1.32674957       1.33280506      -0.05845496       0.18577458       0.41200726
Si      -0.00892442       2.68783222       2.70025576       0.32992624       0.00003317      -0.06536993
Si       1.37109331       4.03077432       4.02588431      -0.26284830      -0.07933579       0.12858345
Si       2.67977595      -0.00590576       2.67076603       0.14968950       0.07759521      -0.00530474
Si       4.01272995       1.35586771       4.01273568      -0.08845249      -0.15235634       0.14250389
Si       2.66211267       2.65790975       0.02330624       0.33770385       0.33595697      -0.06762447
Si       4.04926338       4.02531482       1.35399754      -0.18904884      -0.00749861      -0.29780316
8
Lattice="5.113503931131637 0.0 0.0 0.0 5.113503931131637 0.0 0.0 0.0 5.113503931131637" Properties=species:S:1:pos:R:3:forces:R:3 config_type=bulk energy=-41.14236096885012 virial="23.326772328540958 0.1850423989606978 0.24448634713463008 0.1850423989606978 23.385438977368786 -1.698864482481955 0.24448634713463008 -1.698864482481955 23.382998759214274" label_model=mpa-0 structure_key=d80a367b81cf1ea0ff9308a874a038d993f9a89f0ff101387aaf4e6769d157f7 pbc="T T T"
Si       0.01594931      -0.03304140      -0.00951406       0.01257096       0.54614781       0.22897571
Si       1.29805738       1.28149753       1.29015754      -0.64488702       0.02237615      -0.35995448
Si      -0.02367466       2.55911317       2.54623017       0.45392318       0.09754130      -0.09959314
Si       1.28865531       3.81424717       3.83645462      -0.20089887      -0.14442097      -0.30708844
Si       2.52881706       0.00647159       2.56455576       0.58926502      -0.32124262       0.01617803
Si       3.85706804       1.27182116       3.81643235      -0.33262634      -0.17049007       0.52359069
Si       2.55410058       2.56078696       0.00404452       0.32043971      -0.50513376      -0.28374051
Si       3.82767413       3.82830699       1.26522826      -0.19778665       0.47522215       0.28163214
8
Lattice="5.819356427886505 0.0 0.0 0.0 5.819356427886505 0.0 0.0 0.0 5.819356427886505" Properties=species:S:1:pos:R:3:forces:R:3 config_type=bulk energy=-41.31971933985126 virial="-14.547374590497652 2.0729030423008137 -0.4976310497262288 2.0729030423008137 -13.807011654670209 0.4963498956040225 -0.4976310497262288 0.4963498956040225 -14.094781372438863" label_model=mpa-0 structure_key=acf975ad9f2bfbdd55e78a1ea7fcec6773736c3c2ebf9b4c5c6c31528d3b66c2 pbc="T T T"
Si       0.12084634      -0.11743554       0.03872274      -0.89414399       0.53473441      -0.43504788
Si       1.51867560       1.43422965       1.38151240      -0.31502467       0.27004837       0.56986442
Si       0.00930685       2.90261369       2.85946032      -0.17979342       0.18382100      -0.18923188
Si       1.54669035       4.44540251       4.28195640      -0.81721313      -1.59687344       1.10258625
Si       2.81640777       0.04307621       3.00623233       0.90544063       0.54948863      -1.24449939
Si       4.40512321       1.38507401       4.34935803       0.53799859       0.32171505       0.54740284
Si       3.02886847       2.92299905       0.04627745      -0.86529425      -0.44314201      -1.22645402
Si       4.18046633       4.39561470       1.43745338       1.62803023       0.18020799       0.87537967
8
Lattice="5.5114790631745745 0.0 0.0 0.0 5.5114790631745745 0.0 0.0 0.0 5.5114790631745745" Properties=species:S:1:pos:R:3:forces:R:3 config_type=bulk energy=-41.34093345536745 virial="1.3750446072624505 3.985441099478508 4.728593170369788 3.985441099478508 1.2434681395628409 7.160846160271323 4.728593170369788 7.160846160271323 -0.2073659217213817" label_model=mpa-0 structure_key=479034baaf0b760cf1c0efb1763c6719c031c11ad2998a6b893cc6f322a00b72 pbc="T T T"
Si       0.04615640      -0.03748184       0.01496865      -0.89340950      -1.30161623      -0.37355578
Si       1.22207432       1.34391945       1.38535377       1.60164207       0.80160036       0.82711134
Si       0.13389677       2.80241051       3.00067735      -5.90018485      -4.32582121      -4.63595632
Si       1.39139106       3.92712229       3.99257867       4.34196409       5.26053389       4.20028945
Si       2.80617242       0.04319360       2.83186869      -1.81404233       0.12666343      -0.34427043
Si       4.05693394       1.33054652       4.27284632       1.66676568       0.22584506      -0.39894808
Si       2.74881476       2.73061543      -0.02192671      -0.70455624       0.32541309       1.63463823
Si       4.03610789       4.19407692       1.51073309       1.70182107      -1.11261840      -0.90930841
8
Lattice="5.453163471648749 0.0 0.0 0.0 5.453163471648749 0.0 0.0 0.0 5.453163471648749" Properties=species:S:1:pos:R:3:forces:R:3 config_type=bulk energy=-39.58553994499527 virial="4.351852271829407 -2.5392611771289006 8.135614656887288 -2.5392611771289006 6.47472974312209 -8.243763062988123 8.135614656887288 -8.243763062988123 8.255232569544884" label_model=mpa-0 structure_key=8995da57cea8be264f3e25fe2e0b561af0487e341c91c55a809adfdddb548589 pbc="T T T"
Si       0.12077592       0.01609346       0.16361111      -1.46298997      -1.11558096      -4.39849510
Si       1.43356048       1.08420980       1.39939694      -1.90403049       7.87638167      -1.94361115
Si      -0.09412500       2.91678494       2.78108120       1.41534708      -4.46602820       1.81342602
Si       1.47490294       3.87473208       4.06588292      -0.64275672       1.13403245       1.64588578
Si       2.39283587      -0.16011907       2.54856685       5.95045379      -3.56754622       4.66193717
Si       4.02639100       1.35270975       4.17145897       0.48043723      -0.93909613      -1.29315407
Si       2.79819011       2.68156694       0.10471972       0.22935575       0.05487252       1.11675492
Si       4.34057578       4.15977123       1.45560085      -4.06581668       1.02296486      -1.60274357
8
Lattice="5.801821903197227 0.0 0.0 0.0 5.801821903197227 0.0 0.0 0.0 5.801821903197227" Properties=species:S:1:pos:R:3:forces:R:3 config_type=bulk energy=-40.59608934049134 virial="-12.6795348513857 1.0866588686416672 -2.7384531245875685 1.0866588686416672 -12.21975763497883 -2.600713091218549 -2.7384531245875685 -2.600713091218549 -11.625456517924274" label_model=mpa-0 structure_key=80069b528a4b8810576593f16d93a7985b2cfd8b5c80be50081b56430e42fbe3 pbc="T T T"
Si      -0.21926964      -0.19498610      -0.03213597       2.68632071       2.54105474      -1.40578187
Si       1.54860133       1.41139518       1.67212326      -1.00781725      -0.68235943      -1.27805235
Si       0.11793458       2.89489919       2.84295986      -0.77259747       0.58234505       0.37811418
Si       1.39444422       4.46270151       4.22849328      -0.08100524      -1.22269062       1.14831302
Si       2.95178719      -0.02706959       2.93484539       0.95300405       0.55999175       0.22270104
Si       4.45234963       1.50043681       4.41370910      -1.09866495      -0.25037360      -0.10941332
Si       2.69170220       2.79767456       0.09844762       1.43262608       1.14165115      -0.88649388
Si       4.39677622       4.43513225       1.34595257      -2.11186593      -2.66961904       1.93061318
8
Lattice="5.209810137205266 0.0 0.0 0.0 5.209810137205266 0.0 0.0 0.0 5.209810137205266" Properties=species:S:1:pos:R:3:forces:R:3 config_type=bulk energy=-42.16884808217747 virial="15.646625554583835 -0.2874746318826541 0.6155091472988367 -0.2874746318826541 15.866395862498539 -1.870262428671359 0.6155091472988367 -1.870262428671359 15.751909956186296" label_model=mpa-0 structure_key=631b8bcbb319ec1caebdd2cbda7e8c70cd747c844ec226eaef7bf196ea4cc051 pbc="T T T"
Si      -0.02213129      -0.01511187       0.00357743       0.48418906       0.03134389      -0.04357019
Si       1.31469639       1.27363718       1.28518471      -0.76708240       0.68333936       0.07522948
Si      -0.06859369       2.58034375       2.61159634       1.08298924      -0.27939118      -0.03929909
Si       1.27144052       3.89492439       3.90969392       0.39599165      -0.20520217      -0.23534951
Si       2.58742973      -0.00001212       2.55696474       0.18446233      -0.40467018       0.93246554
Si       3.90999443       1.27042494       3.92456408      -0.79138202       0.02470455      -0.08331888
Si       2.62220249       2.60713958       0.03844380      -0.16879079       0.08501126      -0.58713594
Si       3.93484728       3.90772247       1.31378950      -0.42037709       0.06486447      -0.01902141
8
Lattice="5.783818343855691 0.0 0.0 0.0 5.783818343855691 0.0 0.0 0.0 5.783818343855691" Properties=species:S:1:pos:R:3:forces:R:3 config_type=bulk energy=-41.24602572059217 virial="-12.122145334226184 2.850786732130783 0.9154610038978842 2.850786732130783 -12.542569869170293 0.5074019979459544 0.9154610038978842 0.5074019979459544 -12.498960583414496" label_model=mpa-0 structure_key=df25e3c80b9f422759509994a1158c8f0f2ae77a62097e3f0e75dc2d96cee5a3 pbc="T T T"
Si      -0.04716803      -0.05600754       0.12886293       0.74315341       0.48665061      -1.97463525
Si       1.50999768       1.39441809       1.35704650      -0.09891251       0.26979246       1.01666193
Si       0.11694615       2.92515744       2.85504833      -1.52450058      -1.39618353      -0.76984159
Si       1.48516120       4.17241456       4.23406989      -0.26932785       1.45463802       1.15549883
Si       2.93132354      -0.11038455       2.96195441      -0.62621986       0.20221142      -1.08119666
Si       4.19211908       1.31266433       4.36510300       1.49828588       1.19807369       0.44132738
Si       2.86638244       2.98986427      -0.00707053       0.20423985      -1.30507844      -0.35773650
Si       4.31840297       4.40443995       1.34678878       0.07328165      -0.91010422       1.56992185
8
Lattice="5.324972164081382 0.0 0.0 0.0 5.324972164081382 0.0 0.0 0.0 5.324972164081382" Properties=species:S:1:pos:R:3:forces:R:3 config_type=bulk energy=-41.82427936514732 virial="10.646128126053796 -1.2434546151559918 4.334625482027996 -1.2434546151559918 8.490356344669898 -0.954089326114463 4.334625482027996 -0.954089326114463 10.017789104657162" label_model=mpa-0 structure_key=a1ea2abe7dcef68639f08121731bbfb8aabc9bc9a2b8754b88c4c7db9d0e9a54 pbc="T T T"
Si      -0.01966193       0.07358674      -0.02056249       2.25444926      -1.67311957       1.03214045
Si       1.33226945       1.22829895       1.44607966       0.13264321       1.82853714      -0.94039967
Si      -0.05473103       2.76612116       2.67427029      -0.16441062      -2.75732271      -0.37233983
Si       1.30255114       3.98653984       3.83837524       0.75971428       0.67177852       2.37037941
Si       2.74990280      -0.08778645       2.64057423      -1.40633800       0.88771678       0.64743310
Si       4.06766395       1.14016794       3.95745536      -1.48708121       3.27761370      -0.69816289
Si       2.67557425       2.68037984      -0.06942893       0.15805677      -0.65809014       0.67383864
Si       4.06594129       4.10058113       1.38906005      -0.24703368      -1.57711373      -2.71288923
8
Lattice="5.370782039750565 0.0 0.0 0.0 5.370782039750565 0.0 0.0 0.0 5.370782039750565" Properties=species:S:1:pos:R:3:forces:R:3 config_type=bulk energy=-43.138511970944094 virial="5.107666465129933 -0.836914765295149 -0.8000100854264968 -0.836914765295149 5.08472268719216 -0.07337131611667871 -0.8000100854264968 -0.07337131611667871 5.133804395105518" label_model=mpa-0 structure_key=059d1747794bc4f7ac0e34100edb24537ab6cce1cb97af1aab306497592352de pbc="T T T"
Si      -0.02525240      -0.00068912      -0.01135547       0.41554341       0.13783499       0.02171427
Si       1.35759479       1.32677666       1.36240572      -0.10635389      -0.15527343      -0.48691965
Si       0.03767144       2.64200888       2.68021668      -0.32778110       0.52185620       0.21443039
Si       1.35307094       4.02554828       4.04127096       0.00142553      -0.00189832      -0.15951351
Si       2.70058254       0.01493630       2.67631388       0.02830704      -0.25375810       0.35766278
Si       4.01518076       1.36418921       4.05010659       0.16708321      -0.14008412      -0.33212678
Si       2.69101688       2.66840381       0.01175474      -0.04528531       0.43904796       0.27888602
Si       4.05747525       4.05485317       1.35090646      -0.13293889      -0.54772519       0.10586648
8
Lattice="5.340728435888119 0.0 0.0 0.0 5.340728435888119 0.0 0.0 0.0 5.340728435888119" Properties=species:S:1:pos:R:3:forces:R:3 config_type=bulk energy=-42.27915951824886 virial="8.403228637526645 -4.605870692936752 -0.44699809175031147 -4.605870692936752 8.673655373659685 -2.7598569992208057 -0.44699809175031147 -2.7598569992208057 7.476030013346793" label_model=mpa-0 structure_key=afefb1cf65c6f14addbd86484a085bebb7b7cd304dbcb9bce41b9344772672a9 pbc="T T T"
Si      -0.11642893       0.08370784       0.08438634       1.31315510      -0.97676669       0.14629864
Si       1.34622694       1.42537562       1.37605076      -0.56656692      -0.75686308      -0.68291956
Si      -0.01423808       2.71835066       2.61082990       0.72804834      -0.29165485       1.90134805
Si       1.39222927       4.05951829       4.00911328      -1.53609897       0.54640023       0.06552932
Si       2.67034346       0.08607825       2.65715252      -0.82930195       0.24974909       0.81346161
Si       4.00495281       1.33204353       4.00346459       0.27689069       0.69440586      -0.38306891
Si       2.57531954       2.59969512      -0.09417394       1.43790765       1.25865031       1.17365407
Si       3.99298105       4.07965485       1.55116637      -0.82403394      -0.72392088      -3.03430321
8
Lattice="5.154945027942796 0.0 0.0 0.0 5.154945027942796 0.0 0.0 0.0 5.154945027942796" Properties=species:S:1:pos:R:3:forces:R:3 config_type=bulk energy=-41.14854806358762 virial="21.146242551482928 2.7436424828554635 -3.01718488333043 2.7436424828554635 20.870610223424436 -1.1481091077342145 -3.01718488333043 -1.1481091077342145 20.263485601975685" label_model=mpa-0 structure_key=d4655fb5cd4cae89f29fe3c5b774b75b7aa0ad4f4e6e6944a37ba86c72d95b05 pbc="T T T"
Si      -0.02683455      -0.08634927      -0.01828631       1.73385804       1.91667372      -0.25127196
Si       1.33689440       1.30499700       1.27280099      -0.70212386      -1.22664973      -0.12716035
Si       0.01905331       2.58122785       2.50597879      -0.82265311       0.23097341       0.78115203
Si       1.32551059       3.89713197       3.84832323      -0.89402560      -1.69573886       0.40661380
Si       2.55739712      -0.05682168       2.59366407       1.30205662       1.12516536      -1.06015969
Si       3.85615169       1.25759284       3.91594390       0.27752010       0.54180564      -1.11717883
Si       2.60462815       2.59864986       0.04156450      -1.11101914      -0.89077062      -1.71208777
Si       3.84285602       3.88203229       1.15353258       0.21638694      -0.00145893       3.08009277
8
Lattice="5.599943994599117 0.0 0.0 0.0 5.599943994599117 0.0 0.0 0.0 5.599943994599117" Properties=species:S:1:pos:R:3:forces:R:3 config_type=bulk energy=-41.30054438829184 virial="-3.7326084171933998 0.4222565653362496 -7.612157338117895 0.4222565653362496 -5.960799709530107 1.6413346757172638 -7.612157338117895 1.6413346757172638 -2.334138175345991" label_model=mpa-0 structure_key=b1ba8a271a50ece73923952faa10aa826e8d835625ae47a42a9570e047eb4e0b pbc="T T T"
Si      -0.13438375      -0.16131606       0.10434247       1.38692697       3.02533971      -1.67617358
Si       1.38891413       1.48299788       1.30221932       0.14269765      -2.50261391       0.01268086
Si       0.09190385       2.62244904       2.70903325      -1.65203992       2.74641414       1.53775894
Si       1.26928527       4.42200100       4.18165382       1.21257165      -1.96135923      -1.10626202
Si       2.96220901       0.11810894       2.69440927      -2.68999388       0.61208383       1.04701201
Si       4.14482734       1.40707087       4.19375007       1.09236106      -0.02858259       0.47666733
Si       2.65161135       2.73588572      -0.06406868       0.94842060       2.45527662      -0.77599345
Si       4.13002409       4.36367740       1.40002276      -0.44094412      -4.34655857       0.48430990
8
Lattice="5.170963842213516 0.0 0.0 0.0 5.170963842213516 0.0 0.0 0.0 5.170963842213516" Properties=species:S:1:pos:R:3:forces:R:3 config_type=bulk energy=-41.79384971881948 virial="18.75248393384268 -2.4347094931507436 -0.7890276781119814 -2.4347094931507436 18.805097688478885 0.263421952910706 -0.7890276781119814 0.263421952910706 18.652170055730767" label_model=mpa-0 structure_key=e9878ef3db580347b0116d492a14053259e2b099e32afdc8313213c58c21e71c pbc="T T T"
Si      -0.02720633      -0.01639467       0.00222147       0.31629077       0.22878395       0.93836298
Si       1.34097685       1.30102652       1.33834337      -0.49370921      -0.54354467      -1.07709512
Si       0.02713700       2.58538140       2.54459286      -0.27378009       0.10509328       0.73484212
Si       1.27929315       3.90943688       3.87303445       0.10526065      -0.43532111       0.06364626
Si       2.60520502       0.00546579       2.59616226      -0.11577596       0.04300305       0.50672052
Si       3.89659047       1.28936809       3.88148921       0.23209006       0.39280080      -0.23955339
Si       2.58676583       2.57363983      -0.01275632      -0.15112692       0.31079765      -0.13583019
Si       3.83644059       3.86374436       1.33959929       0.38075069      -0.10161296      -0.79109318
8
Lattice="5.201577513847899 0.0 0.0 0.0 5.201577513847899 0.0 0.0 0.0 5.201577513847899" Properties=species:S:1:pos:R:3:forces:R:3 config_type=bulk energy=-40.57827779091906 virial="18.72127480788323 3.5654448122388294 -3.3242854932136985 3.5654448122388294 16.919901427559505 -7.418700964566974 -3.3242854932136985 -7.418700964566974 18.925683307489766" label_model=mpa-0 structure_key=cc8f9754cdad494ab59ba73eb86ce6d1bef348fdb1be569f23203692f5f7f019 pbc="T T T"
Si      -0.02377592      -0.08726620       0.12161102       3.34727688       2.43927138      -2.82724763
Si       1.46493090       1.52767004       1.22634748      -4.10230427      -3.85341384       2.84092108
Si      -0.04099869       2.71246072       2.51813223       0.81039393      -1.84696881       0.56561814
Si       1.42079415       3.75039105       3.78714241      -0.97944167       2.39206668       0.75757946
Si       2.62368754       0.06477406       2.55645305       0.03984044       0.35416751       0.43812167
Si       3.95720700       1.38675749       3.92295366       0.78472175      -1.58421556      -0.26490976
Si       2.62415934       2.58972340      -0.00758754       2.78038437       2.36654514      -2.09868258
Si       3.92307798       3.92581974       1.27109976      -2.68087142      -0.26745251       0.58859962
8
Lattice="5.5477607927928165 0.0 0.0 0.0 5.5477607927928165 0.0 0.0 0.0 5.5477607927928165" Properties=species:S:1:pos:R:3:forces:R:3 config_type=bulk energy=-42.36906261354367 virial="-3.16776984655707 -0.4097577173037959 -3.613965389023502 -0.4097577173037959 -2.9435975037042894 1.0169148395291514 -3.613965389023502 1.0169148395291514 -2.4547441358920135" label_model=mpa-0 structure_key=63e2bfcb8069c5aacc8918cecaa276543f7b910d5fb89a1b94ea8e58b7861a1c pbc="T T T"
Si      -0.08621960      -0.01311142       0.02911675       1.01495225       0.50607698      -0.87987946
Si       1.31080686       1.35907886       1.35646060       1.81508699      -0.88519955      -0.10522108
Si       0.05237899       2.67264672       2.78495616       0.40939389       1.16685471      -0.05769580
Si       1.37153281       4.10885541       4.24570663       0.62167403      -0.27981190      -0.44997089
Si       2.89264900      -0.17800074       2.76862693      -1.17591201       0.79049286      -0.25553836
Si       4.19551288       1.38253840       4.06330384       0.60332555      -2.01773200      -0.78712743
Si       2.90700194       2.54961668      -0.17459059      -1.77416425       2.23592107       2.42491981
Si       4.33377918       4.11512997       1.35568771      -1.51435645      -1.51660218       0.11051322
8
Lattice="5.304613548630716 0.0 0.0 0.0 5.304613548630716 0.0 0.0 0.0 5.304613548630716" Properties=species:S:1:pos:R:3:forces:R:3 config_type=bulk energy=-42.11535828578542 virial="10.02363872659978 0.01686509375220635 -3.1885923592139376 0.01686509375220635 9.546650429415592 1.9572298440042908 -3.1885923592139376 1.9572298440042908 10.240713694075007" label_model=mpa-0 structure_key=d2b8c49d73164f9693ee5e8f50ea4cf422d2843909af221c6f700fcb295dc78f pbc="T T T"
Si      -0.01313827      -0.11273055      -0.12002977       0.21472236       1.82078363       1.76364890
Si       1.28334545       1.34846594       1.35910909      -0.63465221       0.09641372      -0.16005369
Si      -0.21090446       2.67733687       2.75848496       1.09632976      -0.12033200      -0.96321356
Si       1.30121551       4.06195137       3.88717698       0.68894300      -2.56868317       0.13322401
Si       2.67647157       0.03631396       2.71879067      -1.46089882       0.38755339      -1.62571231
Si       3.86381803       1.23996751       4.05190900       1.33954607       0.88602180       0.58662527
Si       2.71483713       2.65707390       0.01415238      -1.47703052       1.06489527       0.58302671
Si       3.94598717       4.14403439       1.34974741       0.23304036      -1.56665264      -0.31754533
8
Lattice="5.702070652072345 0.0 0.0 0.0 5.702070652072345 0.0 0.0 0.0 5.702070652072345" Properties=species:S:1:pos:R:3:forces:R:3 config_type=bulk energy=-42.60247280983032 virial="-10.19988488795497 0.48607969298369547 0.014134529082247849 0.48607969298369547 -10.252091920865281 -0.08076897187259052 0.014134529082247849 -0.08076897187259052 -10.281733698247413" label_model=mpa-0 structure_key=e4e579fbcf3feec6c22a5268cf0ef04fbab8003ce7ddb1da16b951bbd4d6682c pbc="T T T"
Si       0.01002874       0.01462804       0.00440835       0.01369350      -0.06662106      -0.23247437
Si       1.42479393       1.39363829       1.43944337      -0.02178599       0.47273094      -0.06754787
Si      -0.02011166       2.85516834       2.88050925       0.02183027      -0.06651108      -0.45600007
Si       1.40819189       4.29566991       4.21340683       0.07900973      -0.23273101       0.62750253
Si       2.82592139      -0.01440050       2.84295595       0.24315724       0.12317163      -0.10440942
Si       4.27595804       1.40084039       4.26122443      -0.12617065       0.19229613       0.22020287
Si       2.86143905       2.86036990      -0.00368048      -0.13626087      -0.02092668      -0.11377794
Si       4.28483556       4.32429084       1.40786947      -0.07347323      -0.40140885       0.12650426
8
Lattice="5.2179145278656165 0.0 0.0 0.0 5.2179145278656165 0.0 0.0 0.0 5.2179145278656165" Properties=species:S:1:pos:R:3:forces:R:3 config_type=bulk energy=-41.493260958720285 virial="16.840435200411346 4.133711703986362 1.1012211909725307 4.133711703986362 16.283415948132344 -3.9752890118805273 1.1012211909725307 -3.9752890118805273 16.435140654335815" label_model=mpa-0 structure_key=589ed0333592d4fabd0ea602bd12af1ca681967933c2773b53e4cd15f5b54da5 pbc="T T T"
Si       0.03231058       0.15403294       0.01626969      -0.17184704      -2.27318741      -0.73305698
Si       1.32375642       1.40170732       1.27933506      -0.26321616      -1.65531817       2.19425847
Si      -0.00995569       2.65046381       2.57615200       0.43838102      -0.85767277       0.72834198
Si       1.38215465       3.85657045       3.82623952      -1.98999604       0.22968382       2.17551951
Si       2.58109728      -0.03428795       2.69043649       0.79366336       1.01454062      -2.46456078
Si       3.91196970       1.30248831       3.84024760      -0.02298536       0.59723082       0.77213199
Si       2.54293851       2.56008984       0.00897422       2.38176299       1.26786245      -1.11202777
Si       3.95423430       3.87579644       1.33232801      -1.16576276       1.67686064      -1.56060643
8
Lattice="5.048838899381962 0.0 0.0 0.0 5.048838899381962 0.0 0.0 0.0 5.048838899381962" Properties=species:S:1:pos:R:3:forces:R:3 config_type=bulk energy=-38.14964524112177 virial="31.709025385415565 -2.896109848986177 -11.27532658391279 -2.896109848986177 30.7656832326252 -4.37027277243439 -11.27532658391279 -4.37027277243439 31.904106558425525" label_model=mpa-0 structure_key=08a083241e146127fa003d11bf7cb45788f2320e85920304580fadbcfc65cc50 pbc="T T T"
Si       0.13091099      -0.04696813       0.01101845      -3.37374721       2.84854601       0.96604226
Si       1.36374479       1.34208937       1.13119547      -2.17367191      -1.10351419       3.97722506
Si      -0.02283292       2.58809958       2.56352978       2.72636831      -0.84641141      -0.86172802
Si       1.26293872       3.87445280       3.83265633       0.40677593      -1.71922935      -2.17144991
Si       2.46654677      -0.05705400       2.49711675       0.92357953       2.23572292      -0.20830991
Si       3.78207368       1.40128486       3.77154733       1.46828905      -4.46893551      -0.65599103
Si       2.42571813       2.44062049      -0.18015572       1.99057337       3.82858095       1.47032826
Si       3.88471927       3.85895041       1.34033771      -1.96816706      -0.77475941      -2.51611671
8
Lattice="5.74400550455174 0.0 0.0 0.0 5.74400550455174 0.0 0.0 0.0 5.74400550455174" Properties=species:S:1:pos:R:3:forces:R:3 config_type=bulk energy=-42.178576894129264 virial="-11.902591846891843 0.4101578610810556 0.9367592215881602 0.4101578610810556 -12.054592185261257 0.9421526275733242 0.9367592215881602 0.9421526275733242 -11.805235700122083" label_model=mpa-0 structure_key=a38d1365ed2cc7fdb710c73d2a16f64de4bc3f983a68401f3bcf3b1998a6a428 pbc="T T T"
Si       0.04363273       0.09781194       0.05422393      -0.13763504      -0.89013317      -0.31635592
Si       1.43825107       1.49821947       1.42700103       0.71871451       0.08181764       0.23895182
Si       0.04127086       2.85364338       2.84979909      -0.64570604       0.17948979       0.16629757
Si       1.36344018       4.31613638       4.29469231       0.90309354       0.36274365       0.17673951
Si       2.91402512       0.10175780       2.90536145      -0.48919569      -0.98270177      -0.37044801
Si       4.34402022       1.36612286       4.35950636       0.10237441       0.98131166      -0.23072937
Si       2.93687752       2.90347484       0.00483183      -0.55179964      -0.06203540      -0.38679111
Si       4.33563353       4.32848598       1.38029640       0.10015394       0.32950761       0.72233550
8
Lattice="5.585336086719735 0.0 0.0 0.0 5.585336086719735 0.0 0.0 0.0 5.585336086719735" Properties=species:S:1:pos:R:3:forces:R:3 config_type=bulk energy=-42.59157588811114 virial="-4.44022964774193 0.7664684002204558 1.807725534896684 0.7664684002204558 -4.51341203405213 -1.1388780484619447 1.807725534896684 -1.1388780484619447 -4.70774471980965" label_model=mpa-0 structure_key=212fb8908a33255a6a3cfc0ecd0a4f174b5cffeb58936bd2f401944f379b986f pbc="T T T"
Si       0.08260702      -0.01408183       0.07286666      -0.73598695      -1.18930416      -1.81453250
Si       1.46256630       1.24889141       1.29060981       0.02870235       1.44966937       1.42820529
Si      -0.03109499       2.82223239       2.66681058       1.07066869      -1.27258385       0.91047061
Si       1.54330583       4.09115022       4.12237161      -1.63193147       0.46365692       0.15239245
Si       2.80246460      -0.02741819       2.80886430       0.79451779      -0.22297342      -0.51086047
Si       4.17888764       1.38570620       4.21761190       1.02160526      -0.37390608      -0.73087344
Si       2.78529254       2.68642136      -0.07936590       0.29755362       0.36220908       0.67483124
Si       4.22814253       4.10844316       1.32584094      -0.84512928       0.78323214      -0.10963316
8
Lattice="5.811130123912308 0.0 0.0 0.0 5.811130123912308 0.0 0.0 0.0 5.811130123912308" Properties=species:S:1:pos:R:3:forces:R:3 config_type=bulk energy=-39.163908808591195 virial="-8.539343661140881 8.074236994284682 -1.0404074052665349 8.074236994284682 -9.353439016757223 -0.6091609140353805 -1.0404074052665349 -0.6091609140353805 -11.354949891375323" label_model=mpa-0 structure_key=505e53141ed86aeb66b65d84549da16cd9fca6b3fb3f095b7a75bb689d21a551 pbc="T T T"
Si       0.04730269       0.01502443       0.02024766      -0.05844939       0.67883307      -0.98847147
Si       1.47184157       1.59482811       1.49690226      -0.89116944      -1.67594247       1.07168657
Si      -0.21884408       2.88507815       2.88659228       2.44551816       1.74416577      -1.29554726
Si       1.62325785       4.45479054       4.29724252      -1.95899241      -1.65082797       1.99843408
Si       2.92175862      -0.04365709       3.03828195       0.96678040       1.72372388      -2.14197132
Si       4.18604831       1.79497078       4.19472844      -0.78443011      -2.40950249       2.46175246
Si       3.00319272       2.94706422       0.37264272      -2.78009449      -2.04191086      -4.24593387
Si       4.30961790       4.25769662       1.28309325       3.06083728       3.63146107       3.14005081
8
Lattice="5.091900239541284 0.0 0.0 0.0 5.091900239541284 0.0 0.0 0.0 5.091900239541284" Properties=species:S:1:pos:R:3:forces:R:3 config_type=bulk energy=-38.916237328502035 virial="28.369791357654364 2.199457340080149 -11.357003293441554 2.199457340080149 23.78483143855535 3.201899752321044 -11.357003293441554 3.201899752321044 28.02074307996534" label_model=mpa-0 structure_key=be5d977e2c08b1199482944d5322546e279a1f3259b2597ab9fb3a4ff11b2e9f pbc="T T T"
Si      -0.01370249      -0.15809985      -0.02443011      -4.23696037       3.34103623       2.60685459
Si       1.18983080       1.16819584       1.37697173      -2.04395018      -0.53816498      -1.40217130
Si       0.08168954       2.46831529       2.68975603      -0.94688813       1.77862053       0.35929658
Si       1.25392791       4.09661268       3.80367283       1.05682004      -6.15495366       0.52538516
Si       2.47586917       0.01042923       2.57126920       3.16803042       0.99057244      -1.46631458
Si       3.62102188       1.35594450       3.82662415       1.59571272      -0.43343619       1.27424498
Si       2.44664061       2.45563007       0.24578853      -0.32955356       2.10519520      -2.18563122
Si       3.74176521       3.81446359       1.37917951       1.73678907      -1.08886958       0.28833579
8
Lattice="5.14188918373686 0.0 0.0 0.0 5.14188918373686 0.0 0.0 0.0 5.14188918373686" Properties=species:S:1:pos:R:3:forces:R:3 config_type=bulk energy=-39.15673077711578 virial="25.248624024997685 12.55006646250208 -0.8799512297154196 12.55006646250208 24.649637769262288 2.641447497286126 -0.8799512297154196 2.641447497286126 21.211526931070125" label_model=mpa-0 structure_key=9dc8d402baa0814a8446d7335a413ca8b4f343f4b87a8e55d512bbf7e65c858e pbc="T T T"
Si      -0.04329849      -0.04933473       0.00434425       0.13857779       0.89397513      -1.21806117
Si       1.28656222       1.42717209       1.15507028      -1.02254495      -2.57812965       2.26506187
Si       0.00365207       2.45055279       2.74944120       2.29570008       2.26057712      -4.38119048
Si       1.31575974       3.74892787       3.80777763      -0.37337222       3.60695459      -0.30744062
Si       2.72553038       0.03666704       2.62341590      -4.32503620      -3.80747445      -4.11109408
Si       3.74916451       1.36162917       3.64595484       0.57155053      -0.34428363       5.98169053
Si       2.53936205       2.57165855      -0.08942653       1.70262616      -0.30170429       0.04178517
Si       3.82846017       3.73308996       1.22219539       1.01249881       0.27008518       1.72924878
8
Lattice="5.499602046920692 0.0 0.0 0.0 5.499602046920692 0.0 0.0 0.0 5.499602046920692" Properties=species:S:1:pos:R:3:forces:R:3 config_type=bulk energy=-41.40526925017515 virial="1.2846456401068092 -1.0260124556261074 -3.090741072796292 -1.0260124556261074 1.3773090100330674 -0.7532269721315071 -3.090741072796292 -0.7532269721315071 0.2507333359159231" label_model=mpa-0 structure_key=282a06e63ff0a4e9ffaf960e64b2d841cb4b17f83b8c5f7fc54fec30a5a82f50 pbc="T T T"
Si      -0.06544695      -0.21545759       0.06312093       0.87739827       1.63634858      -0.76847358
Si       1.52966546       1.40271815       1.47061413      -3.52471933       0.09777537      -1.00967631
Si      -0.07195919       2.84075864       2.85166702       0.44129323      -1.15220278      -1.01553505
Si       1.49164465       3.99905272       3.99044465      -0.28887605       0.41429965       2.52343145
Si       2.66394492      -0.07484732       2.60437582      -0.19249612       1.60508518       3.15151557
Si       4.02352880       1.46523814       4.08635319       0.96358396      -2.43872566       0.22115385
Si       2.87633752       2.63157319       0.14175474      -0.75540344       1.49047343      -0.89139609
Si       3.97853841       4.14087428       1.56121719       2.47921948      -1.65305376      -2.21101983
8
Lattice="5.777693723542599 0.0 0.0 0.0 5.777693723542599 0.0 0.0 0.0 5.777693723542599" Properties=species:S:1:pos:R:3:forces:R:3 config_type=bulk energy=-41.60552937795002 virial="-12.181308497873403 -0.49348315719837277 -1.3045181565656097 -0.49348315719837277 -12.181695007772849 -0.005054413658464928 -1.3045181565656097 -0.005054413658464928 -12.54966982841245" label_model=mpa-0 structure_key=f3d1f7a72f145748020cd0e60f50a926e93cb5a21965f260f7cce4173fbbb78e pbc="T T T"
Si      -0.06053733       0.05384389       0.02208903       0.42246883      -0.26512871      -0.30004941
Si       1.30971751       1.49259342       1.40284756       1.44707246      -0.46135586       0.08370490
Si       0.05748845       2.97382815       2.80096999      -0.14597154      -0.11962390       0.97324818
Si       1.55488920       4.42885661       4.23926947      -1.12176488      -0.94913464       1.09789244
Si       2.96773731      -0.06318138       2.98206495       0.00426148       1.65342750      -1.08478807
Si       4.34651436       1.51514945       4.38537493       0.41329754      -0.43190394      -0.87102783
Si       2.90268954       2.85361388      -0.10069832      -0.47711995       0.89094889       1.11121226
Si       4.38071652       4.37375413       1.52485528      -0.54224395      -0.31722935      -1.01019247
8
Lattice="5.041047024998653 0.0 0.0 0.0 5.041047024998653 0.0 0.0 0.0 5.041047024998653" Properties=species:S:1:pos:R:3:forces:R:3 config_type=bulk energy=-39.93441201897542 virial="29.378824174047743 1.909247274594797 -0.5070143299452082 1.909247274594797 29.456037118960932 -0.9913004607592686 -0.5070143299452082 -0.9913004607592686 29.43479996407687" label_model=mpa-0 structure_key=3955d69bcd4d2f80e3ea2085485e11d336b363279071129b7800c56fbaf4a667 pbc="T T T"
Si      -0.03241845       0.00956450       0.01392714       0.28691445       0.28317463      -0.96877907
Si       1.26832576       1.23962926       1.23968155      -0.05463685      -0.06983218       0.71312302
Si      -0.01743557       2.53503724       2.49194396       0.90115834      -0.97730283       0.55939996
Si       1.24559782       3.79705759       3.75004132      -0.05832613      -0.46592106       0.98648385
Si       2.53651656      -0.03051280       2.52689384       0.25762907       0.15153975      -0.68151482
Si       3.75130952       1.28804268       3.76518187       0.54697459      -0.37239577      -0.15924021
Si       2.53221141       2.49768445       0.01681846      -0.64605580       0.95957700      -0.31982787
Si       3.83052369       3.75397115       1.24478375      -1.23365766       0.49116046      -0.12964486
8
Lattice="5.712480490295231 0.0 0.0 0.0 5.712480490295231 0.0 0.0 0.0 5.712480490295231" Properties=species:S:1:pos:R:3:forces:R:3 config_type=bulk energy=-41.987924178862464 virial="-10.098704904572521 -1.318937395143414 0.09047148512132887 -1.318937395143414 -10.339335637577923 0.22445681014761246 0.09047148512132887 0.22445681014761246 -10.384578292562606" label_model=mpa-0 structure_key=fe1bad26eb8760806dd5a250ffaff1b2f62559667e7f5de5c3c1cf5b37e20ac8 pbc="T T T"
Si       0.07565613       0.00134483       0.00833329      -0.68220678       0.47446438       0.41305493
Si       1.52913058       1.43502484       1.33791814      -0.49050734       0.19954858       0.72419584
Si      -0.10800916       2.84275250       2.72165787       1.05989786      -0.63605030       1.40770444
Si       1.37140183       4.36395530       4.37046455       0.24339444      -1.07693598      -1.55285640
Si       2.90386721      -0.10354802       2.81792272      -0.81702667       0.84425204       0.67799369
Si       4.26513319       1.28079522       4.29870115      -0.03800059       1.35750991      -0.23860256
Si       2.82613162       3.00621292       0.03969584       0.51866979      -1.01820664      -0.59893782
Si       4.29191750       4.32328874       1.46199576       0.20577928      -0.14458200      -0.83255212
8
Lattice="5.284480021685783 0.0 0.0 0.0 5.284480021685783 0.0 0.0 0.0 5.284480021685783" Properties=species:S:1:pos:R:3:forces:R:3 config_type=bulk energy=-42.75475632198631 virial="10.446654178525193 0.18592428167493216 1.5294196191997167 0.18592428167493216 10.356284157873894 0.46084648892639984 1.5294196191997167 0.46084648892639984 10.428756112662517" label_model=mpa-0 structure_key=299c672d89907444aee316afe08758e9edf6c0a8ec4799dec82a68df0e887cff pbc="T T T"
Si       0.01673074      -0.02904407      -0.01914642      -0.34287488       0.21410133       0.30000441
Si       1.32065485       1.29810316       1.31191529       0.19024037       0.08095776       0.08800044
Si      -0.00136417       2.65507461       2.61806627       0.17457084      -0.69536730       0.26084413
Si       1.29728421       3.94748863       3.95868302       0.41585151      -0.00108676      -0.20576526
Si       2.65859585      -0.00072877       2.67397143      -0.19806246      -0.44535634      -0.60627059
Si       3.96824295       1.29783804       3.95134103       0.22723868       0.50667466       0.30957540
Si       2.64036720       2.65665217      -0.00596621      -0.06634060      -0.49332177      -0.13213281
Si       3.98249578       3.91573924       1.31204720      -0.40062346       0.83339842      -0.01425572
8
Lattice="5.283777584175297 0.0 0.0 0.0 5.283777584175297 0.0 0.0 0.0 5.283777584175297" Properties=species:S:1:pos:R:3:forces:R:3 config_type=bulk energy=-41.07558022391862 virial="11.796965502793174 5.190353153406523 -4.524967120927385 5.190353153406523 11.528453538886067 7.128631239279202 -4.524967120927385 7.128631239279202 11.588406615873632" label_model=mpa-0 structure_key=dbc746d126fccfed8fb1dbc82a5a7933fe39189e7e86b350878fb83e8ad2e097 pbc="T T T"
Si      -0.05431192       0.29698763      -0.11866316      -0.50838866      -1.17901570       0.00110215
Si       1.43919802       1.47480621       1.14278451      -0.52969241      -2.32938958       1.48291270
Si       0.18677870       2.46587261       2.70461287      -0.80950989       2.24556448      -0.39171356
Si       1.34524638       4.09998592       3.95079551      -0.52114739      -0.80948341       0.87139598
Si       2.76099941      -0.04717291       2.61912319      -3.45754008       1.19324993      -0.13978318
Si       3.74626158       1.46297311       3.75025304       1.47012330       1.24112524       1.86917727
Si       2.77752140       2.77464967       0.10256340      -0.43918345       0.68627992      -2.88609857
Si       3.92783147       4.08932961       1.34936302       4.79533859      -1.04833088      -0.80699278
8
Lattice="5.016811755430609 0.0 0.0 0.0 5.016811755430609 0.0 0.0 0.0 5.016811755430609" Properties=species:S:1:pos:R:3:forces:R:3 config_type=bulk energy=-38.748039943813716 virial="31.77510642455172 5.0285492510362895 4.005599651832715 5.0285492510362895 32.73363853568453 3.339088476820563 4.005599651832715 3.339088476820563 32.047558551010084" label_model=mpa-0 structure_key=55bfc65488708beb21cb41c8f450ec2a565bf3e2bfbf13a676fa2f34d6ac9100 pbc="T T T"
Si      -0.03111484       0.11382332       0.04094999       0.80579322      -0.68953388      -0.10014925
Si       1.34895357       1.22702723       1.26130944      -1.31941128       1.77372344      -0.76781908
Si       0.09367164       2.46059334       2.63345027      -2.15541960      -1.55245282      -3.24470298
Si       1.12760805       3.81277497       3.69452268       2.77386261       2.23244610       2.58579330
Si       2.53094916       0.07157064       2.49608993      -0.74742971      -2.79540754       0.59492492
Si       3.73183973       1.19792397       3.73052464       0.35147920       1.77692232       1.02796814
Si       2.53997300       2.53161402      -0.00283813      -0.45278189       1.18756413      -0.89212809
Si       3.78617656       3.83614633       1.26799250       0.74390746      -1.93326175       0.79611303
8
Lattice="5.266038642643577 0.0 0.0 0.0 5.266038642643577 0.0 0.0 0.0 5.266038642643577" Properties=species:S:1:pos:R:3:forces:R:3 config_type=bulk energy=-42.38559741152852 virial="12.210716225293625 3.8842114380522608 3.053836183552544 3.8842114380522608 12.04430658967412 2.86886211129893 3.053836183552544 2.86886211129893 11.772865978094096" label_model=mpa-0 structure_key=f92d5bb309da7d03a85891629d7205a6530557398673159b3f87947fcd852a0f pbc="T T T"
Si       0.06503006       0.00590278       0.08631551      -0.77229088      -0.84097802      -1.60473228
Si       1.30061870       1.29489955       1.33849989       0.73653623       0.30079252       1.11971064
Si       0.02363836       2.72648350       2.56988156      -0.96257054      -1.23797137       0.03747479
Si       1.30957458       3.88476047       3.91133242       0.74113569       0.82541817       1.38113912
Si       2.67396842      -0.00213082       2.68541567      -0.49309385      -0.35577883      -0.52323798
Si       3.98487801       1.29529976       3.93746665       0.76733845       0.75473665       0.55147551
Si       2.63836035       2.58740611       0.07538891      -0.43409527      -0.48448412      -1.61514064
Si       3.90046688       3.93046485       1.25760262       0.41704017       1.03826500       0.65331084
8
Lattice="5.177343998868256 0.0 0.0 0.0 5.177343998868256 0.0 0.0 0.0 5.177343998868256" Properties=species:S:1:pos:R:3:forces:R:3 config_type=bulk energy=-41.71407381367408 virial="18.595476005515778 -2.4249313270447086 4.200323086596602 -2.4249313270447086 18.171931172866163 -1.2015185491398868 4.200323086596602 -1.2015185491398868 18.45984212231635" label_model=mpa-0 structure_key=3363be3b4a5c8c42156a3f71169c8525e973cee10297a3ff507012cdbf6c8069 pbc="T T T"
Si      -0.04395684      -0.00282368       0.01458199       0.94156419       0.04133676      -0.08285534
Si       1.30959034       1.25703230       1.33762979      -0.43196154       0.89975570      -0.82447604
Si       0.00247526       2.63488325       2.58614384       0.25676406      -1.33047895       0.84495883
Si       1.31937591       3.83891023       3.93693728      -0.62161098       1.25054960      -0.72354065
Si       2.59610102      -0.05144078       2.52833043      -0.01987094      -0.45237654       0.99554961
Si       3.85143596       1.23768478       3.88436315       0.00022335       0.87828963      -0.57062538
Si       2.61010748       2.63502836       0.00704287      -0.04386627      -1.82326410       0.35894923
Si       3.91346643       3.83582661       1.28576219      -0.08124186       0.53618790       0.00203974
8
Lattice="5.292950826656769 0.0 0.0 0.0 5.292950826656769 0.0 0.0 0.0 5.292950826656769" Properties=species:S:1:pos:R:3:forces:R:3 config_type=bulk energy=-41.4427589438242 virial="10.567752138196667 5.961500675226627 -0.9434189553248915 5.961500675226627 12.955529855210745 -0.7659188403130532 -0.9434189553248915 -0.7659188403130532 12.71843352257237" label_model=mpa-0 structure_key=7a522e7ba0930dfc819f86f012d652855f3b7efc3f4c462e41b4f16b746833a4 pbc="T T T"
Si      -0.05406547      -0.03966589       0.06926281       2.78287215       1.27783230      -3.34587645
Si       1.35121986       1.21848662       1.33840827      -0.23752261       0.55037329       0.77833608
Si      -0.06605952       2.62272592       2.63862734       1.00810614      -0.16225937       0.44838913
Si       1.55752122       3.96038665       3.86482975      -2.99539711      -1.17982516       1.55975690
Si       2.81345373      -0.01504450       2.70731297      -1.72646655      -1.02904895      -3.47687948
Si       3.82787359       1.23005130       3.97593080       3.27049331       2.50189446       2.08628881
Si       2.67956356       2.58647116       0.05131632      -0.33988158       0.68099799       0.32454868
Si       4.05017941       4.04575180       1.26517960      -1.76220376      -2.63996456       1.62543633
8
Lattice="5.7127645447859345 0.0 0.0 0.0 5.7127645447859345 0.0 0.0 0.0 5.7127645447859345" Properties=species:S:1:pos:R:3:forces:R:3 config_type=bulk energy=-41.918230037338205 virial="-10.329946957406351 -2.0896954766956366 0.40750354051396953 -2.0896954766956366 -10.260052113337311 1.1235760313250864 0.40750354051396953 1.1235760313250864 -9.928266978994534" label_model=mpa-0 structure_key=fd54294c83c74b380081417f90e97b4971d18f1a692c7a7c8abfc414ec381459 pbc="T T T"
Si      -0.07438417       0.01081435      -0.01454253       0.80942101      -0.27717176       0.85011666
Si       1.40146627       1.45370179       1.37171564       0.14459832       0.42782347       0.35484155
Si      -0.05456186       3.03872091       2.83822172       0.44129996      -1.32093743       0.44811989
Si       1.40450201       4.37349042       4.35204399       0.59775422      -0.23049128      -0.99640038
Si       2.99842825      -0.00579666       2.73090331      -2.19271853       1.11481288       1.64740899
Si       4.33945551       1.29591565       4.31301748      -0.49665227       1.79316926      -1.14840796
Si       2.89270842       2.87253864      -0.04243461      -0.47068831      -0.35527658       0.05300913
Si       4.18852745       4.35395256       1.43406531       1.16698560      -1.15192855      -1.20868790
8
Lattice="5.156513124979076 0.0 0.0 0.0 5.156513124979076 0.0 0.0 0.0 5.156513124979076" Properties=species:S:1:pos:R:3:forces:R:3 config_type=bulk energy=-37.69358661902184 virial="24.60248089972745 -14.65829538558641 -3.9240225331702865 -14.65829538558641 26.65293412564869 3.900308071830241 -3.9240225331702865 3.900308071830241 22.18067084726783" label_model=mpa-0 structure_key=2db557c9dd61859689fbdfff685bc2a36a05f4a659c899e2575cd73e83dc116e pbc="T T T"
Si       0.11097283      -0.10915031      -0.12745236      -3.99466248       2.03030523       1.03687239
Si       1.26011842       1.29527591       1.15736118      -0.53970879       0.64487519       0.39376019
Si       0.22185512       2.64696992       2.66778681      -2.36825130       0.24685973      -1.15591353
Si       1.49813226       3.80034371       4.09382802      -3.96950397       5.62111913      -6.32118990
Si       2.43719100       0.00012950       2.49470257      -0.01918134       1.41954942       2.49414311
Si       3.73865445       1.48699793       3.91548257       5.97707632      -5.80282720      -5.15529522
Si       2.56766503       2.55515597      -0.16744863       1.46174012      -2.23036362       9.25142388
Si       3.65938504       3.97597784       1.23738443       3.45249145      -1.92951787      -0.54380090
8
Lattice="5.68219018139324 0.0 0.0 0.0 5.68219018139324 0.0 0.0 0.0 5.68219018139324" Properties=species:S:1:pos:R:3:forces:R:3 config_type=bulk energy=-42.29822113675112 virial="-9.317842852762107 -1.7519366895253754 0.2729801550044901 -1.7519366895253754 -9.185179494676678 1.4229497447378947 0.2729801550044901 1.4229497447378947 -9.397227478120335" label_model=mpa-0 structure_key=d72d6944c93a824214897eb3b315e24f0665882845fa334a0d4450b9a0b85a82 pbc="T T T"
Si      -0.01045958       0.05688157       0.00667871      -0.48282421       0.15259095       0.87319927
Si       1.40359300       1.54004474       1.40996905       0.71880092      -1.09802042       0.09055340
Si       0.09859620       2.89303638       2.78613829      -1.21002660      -0.28761558       1.25726620
Si       1.27981588       4.26346088       4.42668573       1.14981208       0.22770310      -1.38195902
Si       2.87070108      -0.04383339       2.86630378      -0.89123630       0.45086378       0.49765433
Si       4.22843055       1.39418567       4.33859355       0.14258081       0.77645842      -0.84688072
Si       2.79742560       2.94680836       0.05178504       0.38348992      -0.55760856      -0.11165026
Si       4.27052316       4.26042825       1.48319385       0.18940338       0.33562831      -0.37818320
8
Lattice="5.808962530891016 0.0 0.0 0.0 5.808962530891016 0.0 0.0 0.0 5.808962530891016" Properties=species:S:1:pos:R:3:forces:R:3 config_type=bulk energy=-41.68021243445555 virial="-13.862719213286873 0.15734611220217234 0.2072466331340714 0.15734611220217234 -13.944077931339136 0.039398474902987965 0.2072466331340714 0.039398474902987965 -13.803888607522815" label_model=mpa-0 structure_key=39d734d5a3f905d3bc9f7a178b5c021b0217bab7d10027760d1cbeffba08f2dd pbc="T T T"
Si      -0.03705337       0.11700925      -0.00771663       0.39976491      -0.62767099       0.03189691
Si       1.39792137       1.52930164       1.44084653       0.62532751      -0.49210360       0.13635213
Si       0.05556691       2.93062952       2.96635536      -0.60913188      -0.19271704      -0.72448478
Si       1.40839563       4.28732099       4.32364194       0.36223117       1.08089037       0.55261463
Si       2.87461031      -0.06208091       2.91696518       0.30725366       0.60486603      -0.24695285
Si       4.38740059       1.53480528       4.39217834      -0.59030428      -0.56419568      -0.52234417
Si       2.88605356       2.92432406      -0.07203896       0.24033148       0.17114848       0.72443380
Si       4.44852674       4.37835498       1.43799414      -0.73547256       0.01978243       0.04848434
8
Lattice="5.654301691700154 0.0 0.0 0.0 5.654301691700154 0.0 0.0 0.0 5.654301691700154" Properties=species:S:1:pos:R:3:forces:R:3 config_type=bulk energy=-42.54366225422383 virial="-8.008622366772364 -0.3859414815930954 1.53545055601538 -0.3859414815930954 -8.38600651994868 0.8638817094555089 1.53545055601538 0.8638817094555089 -7.922729736710715" label_model=mpa-0 structure_key=d8a424db2ca9dc8394fad044c1c0b487ace7574a7786b97c8ef68cf6a70b4cc3 pbc="T T T"
Si       0.06332394       0.10223716       0.02285867      -0.58513045      -1.42754347      -0.37556991
Si       1.37392900       1.40566480       1.40697173       1.00873302       0.44716176       0.18281568
Si      -0.02690374       2.77180598       2.77713552      -0.19621323       0.03181270       0.53578232
Si       1.41521196       4.10339461       4.24456896      -0.42112336       1.02701496      -0.06880760
Si       2.74062821      -0.06546594       2.84841754       0.50101951       0.29627642       0.16611712
Si       4.23369160       1.42937431       4.33096693      -0.10863704      -0.27639512      -0.90337046
Si       2.90690132       2.92029395      -0.00161110      -0.73528742      -1.03793007       0.23524224
Si       4.22227701       4.22054808       1.41279361       0.53663899       0.93960282       0.22779060
8
Lattice="5.776653819331375 0.0 0.0 0.0 5.776653819331375 0.0 0.0 0.0 5.776653819331375" Properties=species:S:1:pos:R:3:forces:R:3 config_type=bulk energy=-40.92074244880003 virial="-11.629641164066223 1.7386438094225967 -4.362447810202449 1.7386438094225967 -12.325851588485163 0.4946313581395204 -4.362447810202449 0.4946313581395204 -12.347404574748174" label_model=mpa-0 structure_key=62584167f1ec4177226ebdccdcf8ee5cdee12a3301537334eb4de9d4ad150bc7 pbc="T T T"
Si      -0.11730276      -0.07006381       0.03837963       1.41303646       1.87589745      -2.10336072
Si       1.38193908       1.39365796       1.45147920       0.55455481      -1.70448144      -0.11881098
Si       0.01611467       2.68730135       2.76518094      -1.04701711       2.24211674       1.00980455
Si       1.47235594       4.33531762       4.37277630      -0.39183403      -1.23507554      -0.35864040
Si       2.93931924      -0.15538350       2.81096000      -0.66265744       0.58130013      -0.11085705
Si       4.12109993       1.45979135       4.24741066       1.59477204      -1.24569875      -0.28080372
Si       2.85375596       2.64279642       0.03917320      -0.48477736       1.89950257      -0.56158430
Si       4.31677412       4.35402626       1.13293547      -0.97607736      -2.41356115       2.52425262
8
Lattice="5.800748559337694 0.0 0.0 0.0 5.800748559337694 0.0 0.0 0.0 5.800748559337694" Properties=species:S:1:pos:R:3:forces:R:3 config_type=bulk energy=-41.73882086177495 virial="-13.718632169695395 -1.565637775943334 -0.3752956648032347 -1.565637775943334 -13.690297316278269 0.5822420532638972 -0.3752956648032347 0.5822420532638972 -14.122204603265669" label_model=mpa-0 structure_key=95ba3779ab59c698584778cb29a65dee09784650b477f813f2edb3c02d21654a pbc="T T T"
Si       0.03314184       0.03682878      -0.01889431      -0.48671555      -0.14197091       0.83611233
Si       1.47887842       1.52408734       1.54304527      -0.04170853      -0.61864353      -1.06288933
Si       0.02284272       2.90294811       2.81433155      -0.84720396       0.10360793       1.24949672
Si       1.38620819       4.35663553       4.33967114       0.30240066      -0.21344155      -0.08251295
Si       2.84354578      -0.01171047       2.90576073       0.08459384       0.15882286       0.61214135
Si       4.28643368       1.40735796       4.42564581       0.55796900       0.25634733      -0.82094872
Si       2.88109000       2.87464333      -0.00322925      -0.09975429       0.49536447       0.39304264
Si       4.28408454       4.36517648       1.54382167       0.53041884      -0.04008660      -1.12444204
8
Lattice="5.039839929872487 0.0 0.0 0.0 5.039839929872487 0.0 0.0 0.0 5.039839929872487" Properties=species:S:1:pos:R:3:forces:R:3 config_type=bulk energy=-39.97776633614516 virial="29.45363305279298 -0.6601760630138978 -0.3233286430525537 -0.6601760630138978 29.51672223816612 -0.8273522590297699 -0.3233286430525537 -0.8273522590297699 29.457743823501442" label_model=mpa-0 structure_key=61c8c8daa1e20d3c39be1438ea144ad4511b7ec21f098cdb1c935bf264261e05 pbc="T T T"
Si       0.00356151       0.00103118       0.01965950       0.23492071      -0.30382717      -0.53313305
Si       1.24893392       1.26371961       1.25857670       0.57548782       0.04323021      -0.14004536
Si       0.02555143       2.52331839       2.51260744      -0.51239671      -0.03507933       0.23843437
Si       1.27970734       3.77317612       3.76623186      -0.68353142       0.42691576       0.34135159
Si       2.50399580      -0.02155300       2.50750279       0.58175488       0.74200965       0.09840621
Si       3.79740069       1.26451790       3.79611871      -0.19829749      -0.29072344      -0.62019261
Si       2.50870825       2.52526484      -0.02900885       0.33630048      -0.15572720       0.71228470
Si       3.79283461       3.78194767       1.26065287      -0.33423827      -0.42679847      -0.09710586
8
Lattice="5.535487158627738 0.0 0.0 0.0 5.535487158627738 0.0 0.0 0.0 5.535487158627738" Properties=species:S:1:pos:R:3:forces:R:3 config_type=bulk energy=-42.59877994520697 virial="-1.9763562946043614 -1.2955898805611534 3.000165448918305 -1.2955898805611534 -2.411267119978111 0.1727801061068327 3.000165448918305 0.1727801061068327 -2.123472914246018" label_model=mpa-0 structure_key=83faf86d38bba249f0dc5199876bf2aa4423d09e81eced20636a2d76e3c76794 pbc="T T T"
Si       0.02304108       0.01091582      -0.01875483      -0.77418837       0.03904076       0.79072878
Si       1.50102938       1.38099616       1.30282184      -1.29719205       0.33942150       0.76635824
Si      -0.03719684       2.91632882       2.76904179       1.16740237      -2.25785571       0.26687675
Si       1.30345542       4.12739104       4.24840902       0.93877582       0.67273114      -1.05363592
Si       2.80795214      -0.02267838       2.68475934      -0.86866832      -0.21042629       0.97205304
Si       4.17215443       1.32985494       4.05679200      -0.03691390       0.83321412       0.53952518
Si       2.75663672       2.82074653       0.00427773       0.58966561      -0.91846874      -0.81581840
Si       4.09646372       4.04345132       1.45924794       0.28111884       1.50234322      -1.46608767
8
Lattice="5.367447490532615 0.0 0.0 0.0 5.367447490532615 0.0 0.0 0.0 5.367447490532615" Properties=species:S:1:pos:R:3:forces:R:3 config_type=bulk energy=-43.12030549311526 virial="5.3688812087475215 1.569295900037043 0.31476932365047233 1.569295900037043 5.313438087627796 -0.13449488566376488 0.31476932365047233 -0.13449488566376488 5.258905768629928" label_model=mpa-0 structure_key=160c409ce4115ca526bf49a1c0b2e7507c6857959d7abaee6146056c25d83cde pbc="T T T"
Si       0.01083682      -0.00380611       0.03530217      -0.30340143      -0.00573066      -0.30370002
Si       1.33439110       1.34210707       1.34321274       0.19048189      -0.05102726       0.33511354
Si       0.01678923       2.68740617       2.71077458       0.09310070       0.06053738      -0.21325257
Si       1.35222593       4.05218867       4.03029172      -0.13731325      -0.14373682       0.22437734
Si       2.69011665      -0.00909678       2.71090200       0.20337285       0.03073603      -0.58081200
Si       4.04686398       1.34266870       3.99890331      -0.20671176      -0.00545497       0.64192766
Si       2.66248140       2.69642083       0.02203915       0.13366727      -0.41110818      -0.53239032
Si       4.02988450       3.96936364       1.32666568       0.02680372       0.52578448       0.42873637
8
Lattice="5.680197732886722 0.0 0.0 0.0 5.680197732886722 0.0 0.0 0.0 5.680197732886722" Properties=species:S:1:pos:R:3:forces:R:3 config_type=bulk energy=-42.75203399891701 virial="-9.340836713702101 0.153442543792273 0.2783743319434242 0.153442543792273 -9.357858595974038 -0.04896222902222898 0.2783743319434242 -0.04896222902222898 -9.348244661970444" label_model=mpa-0 structure_key=91aae94174657c228cc870418fcd54c7916faed53a4f58846a0006182a9698f5 pbc="T T T"
Si      -0.01177974       0.00249375       0.02484627       0.03708906      -0.10788003      -0.23644547
Si       1.42705991       1.40444203       1.42038948      -0.13311255       0.24853222      -0.05466535
Si      -0.00402077       2.84794239       2.83351637       0.01857743      -0.09916039      -0.03596775
Si       1.39854259       4.26395604       4.23761407       0.14445028       0.08719310       0.21399645
Si       2.82292743       0.03391362       2.82474607       0.17077471      -0.31729501       0.16041539
Si       4.27069955       1.42977809       4.25878910      -0.07963505      -0.03166518       0.03751710
Si       2.84569012       2.83535741       0.00390640      -0.14736695       0.02663437      -0.18243452
Si       4.24547480       4.24451744       1.41479643      -0.01077692       0.19364091       0.09758416
8
Lattice="5.22793017273023 0.0 0.0 0.0 5.22793017273023 0.0 0.0 0.0 5.22793017273023" Properties=species:S:1:pos:R:3:forces:R:3 config_type=bulk energy=-41.732185763258954 virial="15.922942287792381 0.38077021598704713 -2.1054941046947118 0.38077021598704713 15.19383311893785 1.2378758167308257 -2.1054941046947118 1.2378758167308257 16.279004980049443" label_model=mpa-0 structure_key=6c6436700cf8b711d90fc9ccc66dfb99b7e303292a456fbbc23f1b115c6be1e9 pbc="T T T"
Si       0.08914375       0.08031527      -0.05491265      -0.95254271      -0.83461972       0.99773370
Si       1.28795578       1.35790539       1.28433150       1.65860634      -0.62456408       0.85501772
Si      -0.03374420       2.59355030       2.57783743       1.24683810       0.47779955       1.27894994
Si       1.33635333       4.00684955       3.92316761      -0.49511172      -2.77037572       0.61227909
Si       2.64840306      -0.12153886       2.65478352       0.89165209       2.02212115      -1.78929048
Si       3.96920495       1.31323755       3.92946480      -0.73661166      -0.66926532      -0.87570171
Si       2.74181515       2.59345199       0.02842630      -2.01249856       0.14280904      -0.89172528
Si       3.98931161       3.84963876       1.27181770       0.39966811       2.25609510      -0.18726298
8
Lattice="5.378556185492051 0.0 0.0 0.0 5.378556185492051 0.0 0.0 0.0 5.378556185492051" Properties=species:S:1:pos:R:3:forces:R:3 config_type=bulk energy=-43.18640245104269 virial="4.59887763199711 -0.18605508031740958 -0.17961793040440338 -0.18605508031740958 4.604087419190705 -0.04441631765667189 -0.17961793040440338 -0.04441631765667189 4.624467102326854" label_model=mpa-0 structure_key=60ddcd85dec7f4182d0a255e7b647117adcba13a8e4d05a3d8874ded749d3907 pbc="T T T"
Si       0.01701225       0.00466896      -0.00349438      -0.08053428       0.03728606       0.08175031
Si       1.36667055       1.37192573       1.33821436      -0.16231432      -0.31415416       0.12854596
Si       0.01855774       2.71249891       2.67595684      -0.19104187      -0.13245654       0.13622539
Si       1.37159140       4.02767950       4.04332887      -0.32740436       0.09987640      -0.07100004
Si       2.68548857      -0.01528546       2.69674453       0.06476076       0.28586503      -0.10647605
Si       4.03052270       1.34833589       4.03459571       0.23404973      -0.01714946      -0.17484024
Si       2.68750356       2.68895651      -0.01078498       0.24521134      -0.00849901       0.07457901
Si       4.01932908       4.03756003       1.33966245       0.21727301       0.04923168      -0.06878433
8
Lattice="5.259634024168395 0.0 0.0 0.0 5.259634024168395 0.0 0.0 0.0 5.259634024168395" Properties=species:S:1:pos:R:3:forces:R:3 config_type=bulk energy=-39.86035910465987 virial="16.197824792077654 5.653854601573867 -3.8557304063380444 5.653854601573867 16.986989880071224 4.40672702916415 -3.8557304063380444 4.40672702916415 15.00650584834456" label_model=mpa-0 structure_key=801022b912a33c64e1f30a87225d160e9bce303cea3ca900c6c5fe980ea273df pbc="T T T"
Si      -0.12971969      -0.13858964      -0.08180171       2.46642926       1.40014389       1.46349444
Si       1.35830976       1.53760704       1.53788387       1.43467777      -3.11891052      -2.71033058
Si      -0.03014553       2.69983177       2.62715422      -3.01572694       0.78605268      -0.20195392
Si       1.28843203       3.97837066       3.78914550      -1.44290288      -2.45599551       4.11421108
Si       2.60126760      -0.11628071       2.78314108       1.81198955       3.88002375      -2.65035451
Si       3.98105782       1.26996772       3.93771013      -0.33614641       0.88712375      -0.33140417
Si       2.80476552       2.70731227       0.04219835      -4.17104024      -3.73459138      -3.52306432
Si       3.72528748       4.01487975       1.21586347       3.25271989       2.35615333       3.83940198
8
Lattice="5.297053225694375 0.0 0.0 0.0 5.297053225694375 0.0 0.0 0.0 5.297053225694375" Properties=species:S:1:pos:R:3:forces:R:3 config_type=bulk energy=-39.69128195956284 virial="14.00995672889221 -0.262189005802695 0.6004581358936427 -0.262189005802695 13.126965745284984 -7.196794142505974 0.6004581358936427 -7.196794142505974 17.56822852473264" label_model=mpa-0 structure_key=2791e51f776d4b3e39f7c5e22ba409bb9b1ae6507507e5b340e7812f1c8efd62 pbc="T T T"
Si       0.04320842       0.01541845      -0.03549280       3.12773192      -4.35902044       6.15387364
Si       1.38371575       1.24685439       1.35434842      -0.91963708       0.71442181       0.77966746
Si       0.04715635       2.57864404       2.84430854       0.17920486       1.07495249      -1.42205615
Si       1.44780433       4.15873294       3.99306946      -2.80804378      -4.58420899       3.11392585
Si       2.57693288      -0.16775208       2.66571848       3.57545217       3.76899127      -2.16939901
Si       4.24513048       1.02929301       4.06123302      -6.75187145       4.96590901      -4.73294327
Si       2.61524090       2.64260538       0.09218426       0.27963945      -1.52402497      -2.52297739
Si       3.83634169       3.91774366       1.33005404       3.31752392      -0.05702019       0.79990888
8
Lattice="5.724204856483989 0.0 0.0 0.0 5.724204856483989 0.0 0.0 0.0 5.724204856483989" Properties=species:S:1:pos:R:3:forces:R:3 config_type=bulk energy=-41.37597392083326 virial="-9.9023241007857 0.6029353138400259 2.2319981364644335 0.6029353138400259 -10.037276912975578 -0.38010090642930366 2.2319981364644335 -0.38010090642930366 -10.767201569082495" label_model=mpa-0 structure_key=04f66c9cb2c582a597a9463d96d3d2a56e7b2d57e5fe66f48ab5544a618b334c pbc="T T T"
Si       0.14819538      -0.08883746      -0.00386696      -1.46300950      -0.68877492      -0.84548333
Si       1.36074274       1.34765190       1.42884241       0.48663205      -0.04797613      -0.19630974
Si       0.01401457       2.85528865       2.69723109       0.81493406      -0.06132711       0.79002405
Si       1.58002162       4.16783701       4.16828215      -0.84441531       1.00767613       0.36528921
Si       2.92067002       0.13555036       2.89055350      -0.46093499      -1.77252497      -0.95082351
Si       4.35973309       1.49135211       4.02662200       0.34407203      -0.25452900       2.59631078
Si       2.69889744       2.71660201      -0.04902793       1.61704751       0.08612499      -0.07147631
Si       4.22206782       4.09649415       1.52280421      -0.49432584       1.73133102      -1.68753115
8
Lattice="5.383757174369992 0.0 0.0 0.0 5.383757174369992 0.0 0.0 0.0 5.383757174369992" Properties=species:S:1:pos:R:3:forces:R:3 config_type=bulk energy=-42.05983282254545 virial="5.142509953477038 -0.5597930355070857 3.3352329075361675 -0.5597930355070857 6.423447851314284 4.560815775378154 3.3352329075361675 4.560815775378154 7.103652847221609" label_model=mpa-0 structure_key=6eeb1fbea4d9cc01efe631e82c43b5ab9c51295415fd6560affe228ef025ff91 pbc="T T T"
Si       0.03616925       0.15173657       0.07121602      -2.02785592      -1.82784463       0.53055522
Si       1.16346139       1.38227387       1.46585967       1.52335780       2.34162119      -0.41344521
Si       0.08217235       2.74914181       2.93793705      -2.52795900      -0.02279077      -1.12539400
Si       1.28330231       4.20877707       4.10972004       0.60419669      -0.13357857       0.54757580
Si       2.51307900       0.11407461       2.71400470       1.08673322       0.32435617       0.79429517
Si       3.99409426       1.32302729       4.17182401      -0.77989934       1.30157557      -0.65156542
Si       2.65622171       2.90443392       0.04737338      -0.83410145      -2.11406848      -0.14767263
Si       3.81454742       4.13251455       1.47292235       2.95552800       0.13072952       0.46565108
8
Lattice="5.490871243679008 0.0 0.0 0.0 5.490871243679008 0.0 0.0 0.0 5.490871243679008" Properties=species:S:1:pos:R:3:forces:R:3 config_type=bulk energy=-43.113153280650884 virial="-0.7019537540769745 1.1581107320699535 -0.8466713007667668 1.1581107320699535 -0.5780824620824992 -0.48902962117676557 -0.8466713007667668 -0.48902962117676557 -0.799186002440654" label_model=mpa-0 structure_key=c76a66ee70749bb0ebb5145efc41abf126595ee39d504cf99056e80a27257f99 pbc="T T T"
Si      -0.03027759      -0.01315458       0.09421854       0.55051645       0.35007177      -1.55478518
Si       1.33183963       1.33816313       1.35177244       0.59329012       0.22973369       0.62917170
Si      -0.05147439       2.71815987       2.72927710       0.43192187       0.23521556       0.00406928
Si       1.33765878       4.09935809       4.12040033       0.09665939       0.15380000      -0.09905551
Si       2.80307994      -0.02652192       2.73043590      -0.58919625       0.08352159       0.13184094
Si       4.12332498       1.37694872       4.12610197      -0.10151897      -0.35620197       0.11186729
Si       2.71052429       2.70058635      -0.02354166       0.12243687       0.40915661       0.16369613
Si       4.16706357       4.14635482       1.32295467      -1.10410949      -1.10529724       0.61319535
8
Lattice="5.62678112892489 0.0 0.0 0.0 5.62678112892489 0.0 0.0 0.0 5.62678112892489" Properties=species:S:1:pos:R:3:forces:R:3 config_type=bulk energy=-42.988254173027194 virial="-7.121973374529333 -0.023840176081533344 -0.20393209097822382 -0.023840176081533344 -7.1155260324545715 -0.2877774545094708 -0.20393209097822382 -0.2877774545094708 -7.1000530673908315" label_model=mpa-0 structure_key=24f1ae0bfac73532c5d470fd40d3e87fd7ae7eea9597ff384e58a3a97395c83f pbc="T T T"
Si      -0.01683877      -0.00609009       0.00158782       0.12632140       0.05765107      -0.01941029
Si       1.41386415       1.42783058       1.38903299      -0.12165682      -0.31707690       0.09552566
Si       0.01565148       2.80371380       2.80195061      -0.09771486       0.07405477       0.09436864
Si       1.41932841       4.20486967       4.22773627      -0.26039556       0.09672515      -0.04224231
Si       2.78597266      -0.01429329       2.82324570       0.23832659       0.16126703      -0.09946451
Si       4.21593333       1.41799291       4.22439981      -0.02512102      -0.16835815      -0.11830923
Si       2.79942191       2.81028619      -0.00676849       0.23152968       0.05951494       0.05488005
Si       4.22024406       4.21094158       1.40983224      -0.09128941       0.03622208       0.03465199
8
Lattice="5.831791128883447 0.0 0.0 0.0 5.831791128883447 0.0 0.0 0.0 5.831791128883447" Properties=species:S:1:pos:R:3:forces:R:3 config_type=bulk energy=-41.64642564653387 virial="-14.74993791552444 -0.38988610342744745 -0.1086295034164189 -0.38988610342744745 -14.697644297514202 0.502777592581078 -0.1086295034164189 0.502777592581078 -14.653017797282779" label_model=mpa-0 structure_key=6b0ecd2e91762bfbd94b454b7d9e1a7c30fbe1af9ea7060b6f7f2ab4acad3bd5 pbc="T T T"
Si       0.11314855       0.00698133       0.01596307      -1.08837093       0.00987858       0.05185097
Si       1.45266593       1.42264322       1.47029253       0.41316696       0.33545754      -0.09202895
Si       0.01947536       2.84768566       2.91393542      -0.19306453       0.66622054       0.13627515
Si       1.47363594       4.39793988       4.43963949       0.03151237      -0.27033224      -0.79024271
Si       2.89694805      -0.00116963       2.90512328       0.29332174       0.02074714       0.32881014
Si       4.38856295       1.51110625       4.39715414       0.08742072      -0.56845506      -0.17174581
Si       2.91972197       2.95860375      -0.02485657      -0.04854400      -0.32277767       0.36977830
Si       4.35161266       4.35721725       1.43688846       0.50455767       0.12926117       0.16730290
8
Lattice="5.643733831261918 0.0 0.0 0.0 5.643733831261918 0.0 0.0 0.0 5.643733831261918" Properties=species:S:1:pos:R:3:forces:R:3 config_type=bulk energy=-42.69783617730259 virial="-7.861108152757587 -0.24100786736096624 -0.9212632275946477 -0.24100786736096624 -7.995437242656857 -1.308037141710379 -0.9212632275946477 -1.308037141710379 -7.7592636766884295" label_model=mpa-0 structure_key=fb2803f3573b68d826c89b096b011ccf0eecf6ec989e4c56b286eedba3ac3820 pbc="T T T"
Si      -0.06008311      -0.10437111       0.00669932       0.35875864       0.81278622       0.63961951
Si       1.48137735       1.43642508       1.36000807      -0.98776850      -0.69368715       0.56598275
Si       0.06200122       2.82210855       2.88237144       0.25659577      -0.15627133      -0.01450155
Si       1.43103651       4.32121024       4.30673120      -0.07148961      -0.73265628      -0.39803774
Si       2.78514738       0.02183449       2.86483072       0.79439938       0.08176050      -0.22777493
Si       4.28051232       1.42876672       4.30835794      -0.35950711      -0.29794977      -0.45697920
Si       2.80069045       2.79848895       0.01578042       0.60657289       0.48952573      -0.10876296
Si       4.26989989       4.12650196       1.48422478      -0.59756144       0.49649209       0.00045412
8
Lattice="5.459058626386192 0.0 0.0 0.0 5.459058626386192 0.0 0.0 0.0 5.459058626386192" Properties=species:S:1:pos:R:3:forces:R:3 config_type=bulk energy=-42.695479326871315 virial="1.0097440894883858 2.231476954304826 -0.361918343994638 2.231476954304826 1.6735348772709944 -2.9915762407414195 -0.361918343994638 -2.9915762407414195 1.5426377630872288" label_model=mpa-0 structure_key=6fbc212d7e5d0221dc464bcca76ba3bf1e05c84a62cb535821e609006dcfe48d pbc="T T T"
Si      -0.00259718      -0.08950669       0.11804982       0.82370294       0.66340494      -1.59833677
Si       1.28635111       1.42122520       1.37670708       0.35445626      -0.32074321       0.01871429
Si      -0.14615404       2.69111867       2.70996741       1.86467467       1.22787217      -0.15742073
Si       1.45311862       4.01347712       4.11352875      -1.37469437       0.53594480      -0.33436890
Si       2.64313842       0.06421562       2.75940749       0.98863474      -0.34300723      -0.29436921
Si       4.19277632       1.40751968       4.08874515      -1.41229128      -1.71399072       1.26564379
Si       2.76762729       2.73568672       0.02586456      -0.33135760      -1.12166834      -0.50610944
Si       4.08808403       4.02916183       1.29395071      -0.91312536       1.07218758       1.60624698
8
Lattice="5.77110704520101 0.0 0.0 0.0 5.77110704520101 0.0 0.0 0.0 5.77110704520101" Properties=species:S:1:pos:R:3:forces:R:3 config_type=bulk energy=-38.18385265487519 virial="-1.968921626253812 -10.237147184235328 0.15045338497990282 -10.237147184235328 -5.461910132575646 -1.2508787784623867 0.15045338497990282 -1.2508787784623867 -7.253332977692955" label_model=mpa-0 structure_key=7ad9d9ab027d77594a991f9fbab053b3a8be179e383dc63f7823d358f35dbeee pbc="T T T"
Si      -0.16999230       0.08680183      -0.06116771       2.44354391      -2.28100774       2.40554259
Si       1.48424576       1.52677844       1.41516829      -1.44290508      -0.38429842      -0.49722017
Si      -0.12887758       3.04261616       2.84139723       2.39173261      -2.71543892       2.62402741
Si       1.24933392       4.35496383       4.31722534       1.26261574       0.15849892      -0.55071169
Si       2.83526245      -0.00249268       2.56054212      -0.10185309      -0.39677694       2.53851058
Si       4.36722615       1.49296992       4.65838608       2.37645465      -1.50102308      -6.20206495
Si       2.98352578       2.49490692      -0.10445143      -4.46952117       5.14173092       3.46856105
Si       4.38332615       4.22887729       1.62709737      -2.46006758       1.97831526      -3.78664483
8
Lattice="5.6802346746237244 0.0 0.0 0.0 5.6802346746237244 0.0 0.0 0.0 5.6802346746237244" Properties=species:S:1:pos:R:3:forces:R:3 config_type=bulk energy=-41.69860234935833 virial="-9.377071138044688 -0.7741282340883306 2.262354257864109 -0.7741282340883306 -9.247333829554256 1.622811696597617 2.262354257864109 1.622811696597617 -9.504016942671239" label_model=mpa-0 structure_key=fe6932b6e348cc061b5fc54e063975bd33a4fc1b2b927bf8c5e12756cdc42c54 pbc="T T T"
Si       0.18244953       0.30802351       0.18571213      -0.39185004      -1.45522155      -0.13828206
Si       1.74492548       1.54921037       1.63216257      -0.50472366       0.33396733      -1.02584713
Si       0.15069939       2.87594293       2.74141991      -1.37301193       0.65637911       0.70407300
Si       1.31807884       4.27094905       4.37102776       0.83339834       1.14223876      -0.35206025
Si       2.95587494       0.15772111       3.03812340       0.15713863      -1.55044163       0.10413121
Si       4.39891748       1.55857921       4.44103621       0.54835010       0.13626138      -1.09799474
Si       2.95685022       2.99705135      -0.01736875      -1.37347071      -0.93457747      -0.41538210
Si       4.18780448       4.33976395       1.26371492       2.10416928       1.67139406       2.22136208
8
Lattice="5.405297339909184 0.0 0.0 0.0 5.405297339909184 0.0 0.0 0.0 5.405297339909184" Properties=species:S:1:pos:R:3:forces:R:3 config_type=bulk energy=-42.85804595022637 virial="3.397797222558468 1.9233273592704778 -0.6280150373216737 1.9233273592704778 4.321122430274191 3.5296780119052475 -0.6280150373216737 3.5296780119052475 4.149007583210449" label_model=mpa-0 structure_key=1f4fe5bf9a0b6dd197949ad605a5bbcbf731177a8d0b39d044e3ba0273a777e6 pbc="T T T"
Si      -0.02604786      -0.00932219       0.00140035       0.23693766      -0.50050619      -0.40927463
Si       1.22544352       1.37348135       1.30459093       1.79511717      -0.33908128       0.59399369
Si       0.02121337       2.68282925       2.74809593      -0.96122658       0.17933428      -0.86832866
Si       1.31189828       4.04272507       3.97826900       1.13381649       0.46453356       0.98957665
Si       2.82024839      -0.03085744       2.71303483      -1.85433276       0.87280781      -0.18866014
Si       4.08578931       1.33569428       4.07269907      -0.22051400       0.26597957       0.05849464
Si       2.74626082       2.70131403       0.01472903      -1.11225647      -0.13401993      -0.45212234
Si       4.01337627       4.08269918       1.32515575       0.98245849      -0.80904783       0.27632080
8
Lattice="5.587875352707877 0.0 0.0 0.0 5.587875352707877 0.0 0.0 0.0 5.587875352707877" Properties=species:S:1:pos:R:3:forces:R:3 config_type=bulk energy=-43.03098683682402 virial="-5.386052037988426 0.06326431868905065 -0.0796520844607135 0.06326431868905065 -5.313528612664894 -0.7052964527291896 -0.0796520844607135 -0.7052964527291896 -5.384959546957619" label_model=mpa-0 structure_key=e1fc594f1ffd9ab3ef9d53ec70e6e422d5021980c126e4f9280aa4f9b9f7e62e pbc="T T T"
Si      -0.01767251       0.06711642      -0.03039057       0.54609596      -0.22814732      -0.25917733
Si       1.38641765       1.43296374       1.33641199       0.02520626       0.12485999       0.37812464
Si      -0.01296248       2.84429069       2.81339620       0.27421342      -0.10531280      -0.43430207
Si       1.43433303       4.20623621       4.16177385      -0.24000746       0.30940994      -0.05138922
Si       2.80318799       0.02170798       2.72868759       0.13550690       0.02937201       0.00371673
Si       4.19267388       1.43028322       4.18496167      -0.12301334      -0.18631144      -0.51405318
Si       2.79882263       2.78356060      -0.08307491       0.13549204       0.45792738       0.58432414
Si       4.27458224       4.24594761       1.32165188      -0.75349378      -0.40179775       0.29275628
8
Lattice="5.024607859031964 0.0 0.0 0.0 5.024607859031964 0.0 0.0 0.0 5.024607859031964" Properties=species:S:1:pos:R:3:forces:R:3 config_type=bulk energy=-39.63012544314514 virial="30.742819637843773 -0.6535036864389886 1.543460665530829 -0.6535036864389886 30.68781644145837 -1.5938818356231408 1.543460665530829 -1.5938818356231408 30.71672646315869" label_model=mpa-0 structure_key=e6c11d99218d8e0b69de38afe753e03af68a142f8747a3381c80d3b464f2168e pbc="T T T"
Si       0.02977542      -0.03286380       0.02551864       0.63860757       0.18068824       0.03958587
Si       1.20594543       1.26412067       1.29922803       0.36461224      -0.18920713       0.04048187
Si      -0.02253817       2.55092617       2.50650885       0.12032773       0.05070620       1.26111803
Si       1.29468616       3.76798774       3.81453116       0.15704562      -0.10817723      -1.09695610
Si       2.53880785       0.04626661       2.52716219      -0.09844172      -0.82430009      -0.43045451
Si       3.83517508       1.19631388       3.80691565      -0.41067963       1.31984904      -0.07246289
Si       2.49417756       2.47729644       0.03392289       0.66256165      -0.64475268      -0.26897165
Si       3.79885870       3.76394546       1.21944896      -1.43403345       0.21519364       0.52765937
8
Lattice="5.33005983131792 0.0 0.0 0.0 5.33005983131792 0.0 0.0 0.0 5.33005983131792" Properties=species:S:1:pos:R:3:forces:R:3 config_type=bulk energy=-41.0905092113931 virial="7.351976520404933 -3.2723685575056214 -2.833065229522387 -3.2723685575056214 11.264372047392813 4.832545854441612 -2.833065229522387 4.832545854441612 10.24321286148859" label_model=mpa-0 structure_key=20f57b98aa6ac38eb0d51509cf2b9ca6066f5d9c95abcf7c29ed63b458a62934 pbc="T T T"
Si      -0.43603188      -0.13588831      -0.00959997       3.44541647       1.65070355      -1.19128227
Si       1.25013874       1.41217112       1.12355447      -0.36914766      -1.36281480       0.31064285
Si       0.04055008       2.77032129       2.63533265      -0.83880568      -1.86268594      -0.62147292
Si       1.29187119       4.03040217       3.91780986       0.52578653       1.63300222       1.07281627
Si       2.75194414      -0.02870224       2.46332866      -2.63486633       2.37115126       1.62724655
Si       3.85622148       1.42118900       4.00718211       3.16390901      -3.05759361      -3.98940103
Si       2.74528598       2.65300482      -0.18442817      -4.18364756       2.41693182       2.17660510
Si       3.83119633       3.85970043       1.32171137       0.89135522      -1.78869450       0.61484544
8
Lattice="5.604373939582871 0.0 0.0 0.0 5.604373939582871 0.0 0.0 0.0 5.604373939582871" Properties=species:S:1:pos:R:3:forces:R:3 config_type=bulk energy=-43.06754103997064 virial="-6.140194255889271 -0.2057407195066499 0.24964735333034624 -0.2057407195066499 -6.151194066816198 -0.09557652726470471 0.24964735333034624 -0.09557652726470471 -6.154690059557791" label_model=mpa-0 structure_key=5dd5fe364cc2abf744e44d0a4ee43bfe03b295e66530d6e36f99df0155c38f45 pbc="T T T"
Si      -0.00962605       0.01711127       0.01379378       0.11782453      -0.23564796       0.00800959
Si       1.40418456       1.39140492       1.40210313      -0.02541840       0.22645824      -0.00621544
Si      -0.01256153       2.79804500       2.80593953       0.06485301      -0.06841497       0.09159282
Si       1.41010724       4.21358413       4.19946744      -0.22751899      -0.03045861       0.01605355
Si       2.79096864      -0.00719793       2.79838100       0.11483943       0.08170868       0.09232607
Si       4.19475017       1.38502545       4.24353689      -0.01107335       0.15539976      -0.34782139
Si       2.80950201       2.82533102      -0.01061144      -0.12972010      -0.18010982       0.14377223
Si       4.19226790       4.19988554       1.40670482       0.09621388       0.05106468       0.00228257
8
Lattice="5.52240994710958 0.0 0.0 0.0 5.52240994710958 0.0 0.0 0.0 5.52240994710958" Properties=species:S:1:pos:R:3:forces:R:3 config_type=bulk energy=-41.59693481443184 virial="1.6023317451445351 -4.361807278756772 -1.799551827413325 -4.361807278756772 -0.22857922516185153 -1.650658624740161 -1.799551827413325 -1.650658624740161 -2.851839939709152" label_model=mpa-0 structure_key=574fede09e7c45c497242c5e17ee189e1eefcc3778babf293c735e8cd95bdab8 pbc="T T T"
Si      -0.06636954      -0.04622411      -0.20467974       1.70003644      -0.44920261       1.42333235
Si       1.36070598       1.27022047       1.40846808      -0.46334224       0.36016938      -0.91554835
Si      -0.12401900       2.75594608       2.81481713       0.26287978      -1.20173850      -1.53818494
Si       1.35186068       4.00772348       3.93740582      -0.07457394       1.17659819       0.79638673
Si       2.77216446      -0.17721714       2.69331850       0.59769566       1.46204019       0.24784124
Si       4.13402738       1.44998418       4.29553122       0.90104354      -2.22072726      -3.12493485
Si       2.65379451       2.61068438      -0.31979407      -1.61546612       1.92554507       4.10901876
Si       4.24666142       4.15974608       1.31872023      -1.30827312      -1.05268447      -0.99791093
8
Lattice="5.346111803165661 0.0 0.0 0.0 5.346111803165661 0.0 0.0 0.0 5.346111803165661" Properties=species:S:1:pos:R:3:forces:R:3 config_type=bulk energy=-41.62769799856909 virial="8.887709540256429 -0.09001564992479866 -1.9957359191185808 -0.09001564992479866 9.419094281519452 2.7336125640868514 -1.9957359191185808 2.7336125640868514 8.214991309992229" label_model=mpa-0 structure_key=b7a14a4656683dae568e15fbbc161feae449e19659044e304aeb9699dd7c843f pbc="T T T"
Si       0.18488715      -0.04679048      -0.06975938      -4.05306946       3.18089580       3.60325662
Si       1.42532812       1.34321580       1.41647550      -2.66509232      -0.34040086       1.80548916
Si      -0.05563728       2.82292171       2.98329767      -0.04467998      -1.41076177      -2.02736030
Si       1.36803808       4.06455632       4.20651446       3.17430094      -2.86322715      -2.30890612
Si       2.65865251      -0.02399603       2.76271295       0.31710443      -0.95772228      -1.00412434
Si       3.91147812       1.28620324       4.08821454       1.54444736       0.02378015       0.28784813
Si       2.64686998       2.55959663       0.12507535       0.53031344       1.09556773      -1.18289409
Si       3.98902160       3.91715296       1.31797170       1.19667560       1.27186838       0.82669093
8
Lattice="5.397330691343942 0.0 0.0 0.0 5.397330691343942 0.0 0.0 0.0 5.397330691343942" Properties=species:S:1:pos:R:3:forces:R:3 config_type=bulk energy=-42.87637705482497 virial="4.5316166747890305 -3.3784186873525064 -1.1385692398947094 -3.3784186873525064 4.372054551638398 -1.7025893526796845 -1.1385692398947094 -1.7025893526796845 4.334977667508566" label_model=mpa-0 structure_key=79361cf7bfed2381b1136c6e66ec5eb2370f68de4a95ef398c95a45890a9a4fb pbc="T T T"
Si      -0.01854566      -0.02007708       0.00907625       0.29505279       0.91455176       0.11318478
Si       1.43289517       1.32836074       1.45620348      -1.52359634       0.55909841      -1.41632046
Si      -0.01972965       2.74306106       2.67717682       0.85397980      -0.40221720       0.68610841
Si       1.38351796       4.06888126       4.07295237      -0.44964704       0.05891095      -0.35220645
Si       2.71561765       0.03452642       2.69263720       0.71373455      -0.44945387       1.31018677
Si       4.00474096       1.48122991       4.08216769       0.97126785      -1.41700341      -0.56606424
Si       2.67107265       2.67662649      -0.01484594      -0.12906245       0.94620458       1.40423475
Si       4.08097556       4.08475100       1.42484998      -0.73172916      -0.21009122      -1.17912356
8
Lattice="5.806434107119699 0.0 0.0 0.0 5.806434107119699 0.0 0.0 0.0 5.806434107119699" Properties=species:S:1:pos:R:3:forces:R:3 config_type=bulk energy=-41.81681393434241 virial="-14.057553079565736 -0.2447839445812222 0.5836325682749527 -0.2447839445812222 -13.97967123248613 -0.15605596637532282 0.5836325682749527 -0.15605596637532282 -13.967871643697112" label_model=mpa-0 structure_key=6777d7f90e30632c70763b0277d89e68049cdbb7a20c191724c72c2ab0a93b0e pbc="T T T"
Si      -0.09648505      -0.04150960      -0.09407888       0.91733557      -0.26055996       0.59378430
Si       1.38194458       1.46690993       1.41380298       0.10306040      -0.13443258      -0.06461364
Si      -0.05473801       2.91409400       2.90689921       0.37771847      -0.25358510      -0.07375050
Si       1.46125909       4.28637302       4.34372613       0.09296536       0.51922876      -0.18670441
Si       2.89918732       0.06293661       2.84965525      -0.24070465      -0.65103323       0.16462878
Si       4.37312288       1.41239662       4.37518432      -0.39636990       0.31403306      -0.58343252
Si       2.97497599       2.86029134       0.01249531      -0.73091469      -0.06375118      -0.15059100
Si       4.34540144       4.30927786       1.40503002      -0.12309056       0.53010023       0.30067898
8
Lattice="5.789393429287599 0.0 0.0 0.0 5.789393429287599 0.0 0.0 0.0 5.789393429287599" Properties=species:S:1:pos:R:3:forces:R:3 config_type=bulk energy=-42.09699893240338 virial="-13.506506015156686 0.21711232676836745 -0.04512627955738902 0.21711232676836745 -13.458282847006938 -0.4848122978990577 -0.04512627955738902 -0.4848122978990577 -13.470576864956344" label_model=mpa-0 structure_key=ebc63786ee51a8a65ad4d73be5f51a78e3e2be366f827ec3b85290599d525fa0 pbc="T T T"
Si      -0.02067770      -0.00069535       0.01104027       0.34894875       0.03668371      -0.14498695
Si       1.46253302       1.44764975       1.45208980      -0.21940437      -0.03192117       0.03411735
Si      -0.00940444       2.90237679       2.90300382       0.26243861      -0.01899244      -0.13937054
Si       1.46686459       4.34379966       4.34035058      -0.25836950      -0.02560710       0.11024359
Si       2.88767276      -0.01368048       2.89797228       0.23374324       0.06424171      -0.12864006
Si       4.36538325       1.44393190       4.32440039      -0.27087064      -0.03847532       0.13039994
Si       2.89149688       2.88081558      -0.00735930       0.17695061       0.03200598      -0.04386881
Si       4.35991402       4.33415787       1.42558055      -0.27343669      -0.01793539       0.18210547
8
Lattice="5.3822246981936 0.0 0.0 0.0 5.3822246981936 0.0 0.0 0.0 5.3822246981936" Properties=species:S:1:pos:R:3:forces:R:3 config_type=bulk energy=-43.18055653866995 virial="4.384953254417411 -0.010984716193716989 -0.0008655091721039286 -0.010984716193716989 4.406810809504495 -0.020458694593041834 -0.0008655091721039286 -0.020458694593041834 4.477150575707728" label_model=mpa-0 structure_key=9aaac2b3552d58e277f84842cde1fae3616d7200c48a88069d943de3e529fc3d pbc="T T T"
Si      -0.01998966      -0.01770587      -0.00135320       0.14798810       0.01561392       0.08758670
Si       1.34484688       1.33055091       1.34378321      -0.13610008       0.25299242      -0.25759246
Si      -0.02231360       2.65525620       2.70287493       0.22794195       0.24231125      -0.16719747
Si       1.32836072       4.02938031       4.02946000       0.14984114      -0.13724665       0.10963165
Si       2.66119826       0.04555045       2.71414272       0.20131205      -0.48063238      -0.04039867
Si       4.02892942       1.35222805       4.05637152       0.07451267      -0.23184092      -0.03476023
Si       2.73155267       2.68915088       0.00555390      -0.56243423       0.21955136       0.12443510
Si       4.03210132       4.04064571       1.37108486      -0.10306160       0.11925100       0.17829536
8
Lattice="5.55465215835772 0.0 0.0 0.0 5.55465215835772 0.0 0.0 0.0 5.55465215835772" Properties=species:S:1:pos:R:3:forces:R:3 config_type=bulk energy=-43.200732683184256 virial="-3.9860116104769383 -0.3134778160209358 0.18204948814127458 -0.3134778160209358 -3.986413430193366 -0.10415439981944007 0.18204948814127458 -0.10415439981944007 -4.016897218016083" label_model=mpa-0 structure_key=7f561c47b976fdf19e1d323a09b6e384ed8af66528f9d965dcdcd7a0b5652e05 pbc="T T T"
Si      -0.01858452       0.02984562       0.00481169       0.05691201      -0.24733212      -0.02558957
Si       1.39544028       1.38316545       1.38253578      -0.19912234       0.17523110       0.00088511
Si       0.00025158       2.78138211       2.78836330      -0.02307170      -0.08000003      -0.01182589
Si       1.37952577       4.18697223       4.15656788      -0.00268055       0.08456076      -0.02893416
Si       2.78159434       0.01278313       2.73095183       0.01721168      -0.14142626       0.35759668
Si       4.13997174       1.39520482       4.18284055       0.08272283      -0.00150791      -0.27002086
Si       2.74721006       2.77125519      -0.01979787       0.10705872       0.19973745       0.13977391
Si       4.16829997       4.15308092       1.39005566      -0.03903065       0.01073702      -0.16188522
8
Lattice="5.431336648764048 0.0 0.0 0.0 5.431336648764048 0.0 0.0 0.0 5.431336648764048" Properties=species:S:1:pos:R:3:forces:R:3 config_type=bulk energy=-42.91418270245131 virial="2.8965481973722373 -0.3952404301868587 2.3282604048878537 -0.3952404301868587 2.4020838752294305 0.4618768793677884 2.3282604048878537 0.4618768793677884 2.7076493536791957" label_model=mpa-0 structure_key=9df7c9ae5fa9bc0909bae44df80ca3687f80f7d54c28984b48947b4ae9f1318a pbc="T T T"
Si      -0.00102127       0.11433874      -0.04883145       0.19629507      -1.83581896       1.10704604
Si       1.36263165       1.39929228       1.29264767      -0.07284426      -0.33121625       1.00450393
Si       0.07046151       2.75038831       2.72471747      -0.81028946      -0.41908397       0.24926897
Si       1.39795672       4.07815257       4.13379883      -0.50723170       0.34699061      -0.24944857
Si       2.69098069      -0.01987919       2.72349314      -0.07566184       0.34591477      -0.14297612
Si       4.05341900       1.29578279       4.13306414      -0.47131165       1.50394248      -1.31144444
Si       2.70876881       2.74846173       0.05443001       0.29810264      -0.54195439      -0.81361739
Si       4.00141923       4.03437134       1.37756898       1.44294120       0.93122571       0.15666757
8
Lattice="5.008780464379266 0.0 0.0 0.0 5.008780464379266 0.0 0.0 0.0 5.008780464379266" Properties=species:S:1:pos:R:3:forces:R:3 config_type=bulk energy=-36.05433937386547 virial="37.21544859449027 19.192803694260427 1.105834776352002 19.192803694260427 39.599714637410756 -7.275131122710731 1.105834776352002 -7.275131122710731 30.20405134275273" label_model=mpa-0 structure_key=1758c76dafca1c95a9c33b3d32ede641f0757232721a8765f97c8da3d443c6bc pbc="T T T"
Si      -0.03490325      -0.01282194       0.07811582       3.71329429       1.31829660      -2.65889702
Si       1.31145255       1.20833814       1.33886096      -3.60854351      -1.67791405       0.64295323
Si       0.12167808       2.64684113       2.45717538      -6.00241019      -3.97268361      -3.45835926
Si       1.27841964       3.82644763       3.40746640      -0.01469375       0.03557377       8.87853580
Si       2.48995073       0.05357491       2.55935693       6.47628421       1.45581025      -2.09515850
Si       3.85646532       1.26367763       3.73128807      -0.58636940       2.00251730       0.72684816
Si       2.26565804       2.43818705       0.11592128       2.21117849       2.63840337      -5.55089743
Si       3.71409122       3.75488493       1.00448964      -2.18874014      -1.80000363       3.51497502
8
Lattice="5.134772620497637 0.0 0.0 0.0 5.134772620497637 0.0 0.0 0.0 5.134772620497637" Properties=species:S:1:pos:R:3:forces:R:3 config_type=bulk energy=-38.84775462612908 virial="23.987658383026822 4.463621432642999 -4.897335506005607 4.463621432642999 25.049359468828868 -6.109083312716638 -4.897335506005607 -6.109083312716638 23.96810079699299" label_model=mpa-0 structure_key=5d86bf0a61f41000cfd194f50e56c3e406d1b3124656e2e12f2111c153a93230 pbc="T T T"
Si       0.03254867       0.19275808       0.25462596      -2.06730537      -3.39064275      -2.87264575
Si       1.29183422       1.41431720       1.21381098      -2.35773179      -0.06013213       8.28741195
Si      -0.19645168       2.65095098       2.66425857       2.65429547       1.03292275      -0.24031978
Si       1.31461059       4.00609628       4.00583654      -0.94556526       0.17124615      -1.51242205
Si       2.58054259       0.03403676       2.40060078      -1.85670955       1.42248306       3.24568373
Si       3.90570240       1.21634041       3.89214292      -1.67277233      -0.55722856       0.01439812
Si       2.36263222       2.40749943      -0.00847191       5.95439691       4.66108347      -4.61018343
Si       3.80273463       3.95203176       1.27418696       0.29139193      -3.27973199      -2.31192280
8
Lattice="5.258988921305874 0.0 0.0 0.0 5.258988921305874 0.0 0.0 0.0 5.258988921305874" Properties=species:S:1:pos:R:3:forces:R:3 config_type=bulk energy=-42.496243908992284 virial="12.381541883810945 0.12248423257749168 1.4121391164500416 0.12248423257749168 12.354160697623112 -1.2876243008276513 1.4121391164500416 -1.2876243008276513 12.239789785103957" label_model=mpa-0 structure_key=dcc1d528592647494e823846feee694f727692fcca23e25b904e5e31d19a5d54 pbc="T T T"
Si       0.02342661       0.00153766       0.06582016      -0.36898426      -0.23358996      -0.61909303
Si       1.32055490       1.33050322       1.30628302      -0.92498674       0.81793593       0.16128025
Si      -0.00913482       2.65079786       2.67573540       0.30261180      -0.50224214      -0.16234967
Si       1.30477636       3.94006519       3.96512383       0.60313193       0.58988908      -0.06385271
Si       2.58722092       0.09009348       2.57782410       0.80021313      -1.06539553       1.36117192
Si       3.96141175       1.33066506       3.98647116      -0.38302860      -0.33099045       0.05490843
Si       2.62203955       2.63832507       0.06211458       0.51441445       0.44305427      -0.56892116
Si       3.96753776       3.95201779       1.37702290      -0.54337171       0.28133880      -0.16314403
8
Lattice="5.026149923441406 0.0 0.0 0.0 5.026149923441406 0.0 0.0 0.0 5.026149923441406" Properties=species:S:1:pos:R:3:forces:R:3 config_type=bulk energy=-39.18203169278493 virial="31.05777242684216 0.9231337017678173 4.8871091714329475 0.9231337017678173 30.739200461322465 -4.611475031954758 4.8871091714329475 -4.611475031954758 31.066578034457553" label_model=mpa-0 structure_key=91160017117fb7f14746866506ab897fdcafb8faacd63a836597aab6de1b7a42 pbc="T T T"
Si       0.02555738       0.03990600       0.00523728       0.41634676       0.70700889       0.63857635
Si       1.28437760       1.31659671       1.30524532      -1.44210888      -1.06275212       0.85594158
Si      -0.01569277       2.61124429       2.51839925      -0.44691810      -1.74963731       0.57693696
Si       1.21114984       3.72588621       3.84028211       0.30233423       1.22805332      -0.87871496
Si       2.44487790      -0.03925785       2.51002249       1.65709196      -0.74052371       0.18789031
Si       3.77288408       1.25728546       3.81657548      -1.41204226       0.89633653      -0.73770919
Si       2.41121239       2.58198222       0.09567603       1.53383799      -1.39284345      -1.71278520
Si       3.82879165       3.70028997       1.14999335      -0.60854169       2.11435785       1.06986414
8
Lattice="5.417120373152995 0.0 0.0 0.0 5.417120373152995 0.0 0.0 0.0 5.417120373152995" Properties=species:S:1:pos:R:3:forces:R:3 config_type=bulk energy=-43.20456623642417 virial="2.6290076566787643 -0.38397102963113927 -0.463899579729498 -0.38397102963113927 2.7360200874471494 1.243111733236101 -0.463899579729498 1.243111733236101 2.7111301086397317" label_model=mpa-0 structure_key=80e078394270e77535966a78d53e9af24e141bdfc1faa6289760bd98c8973746 pbc="T T T"
Si       0.01404356       0.01716339      -0.01292576      -0.29330963       0.15986613       0.21939228
Si       1.33039465       1.38201794       1.37147020       0.23212222       0.15509523      -0.49474092
Si       0.03510910       2.73604068       2.72418109      -0.81129446       0.06305827      -0.28184793
Si       1.31442693       4.10629221       4.03658237       0.69002908      -0.17431438       0.29681969
Si       2.68236721       0.02672214       2.67060797      -0.00119990       0.13319947       0.44480361
Si       4.06349299       1.35567573       4.05120981       0.02847248       0.10084199      -0.10267427
Si       2.72584688       2.72388055      -0.01972517      -0.30840358       0.16626990       0.07656806
Si       4.03005663       4.13066790       1.35728412       0.46358379      -0.60401661      -0.15832051
8
Lattice="5.083525141503908 0.0 0.0 0.0 5.083525141503908 0.0 0.0 0.0 5.083525141503908" Properties=species:S:1:pos:R:3:forces:R:3 config_type=bulk energy=-40.0057842486641 virial="26.51920508095788 2.9541699196140363 2.5092939588479983 2.9541699196140363 26.383820806735415 -0.556413918070991 2.5092939588479983 -0.556413918070991 26.91877612574247" label_model=mpa-0 structure_key=5dcbf3155bdf25a66cf3630b2f923f0a2cece964fb3b5cc830302e3d1581e678 pbc="T T T"
Si       0.01455388       0.03508954      -0.02675696       0.62116999       0.62008084      -0.62295420
Si       1.30614736       1.32922578       1.33316052      -1.88875857      -1.24190832      -0.49791548
Si      -0.01154431       2.51835243       2.55183902      -1.24769678       0.44616052      -0.11917540
Si       1.28070871       3.74598102       3.77026285       0.19931656       1.90164436      -0.15245695
Si       2.57413051       0.06807913       2.47807236      -1.42405940      -4.05211231      -1.29570540
Si       3.70976713       1.20881745       3.69188527       2.06324230       2.13048202       3.34243076
Si       2.43798394       2.49393902       0.01488286       2.26413699       0.58611070      -1.10081121
Si       3.84881650       3.80378446       1.17981872      -0.58735108      -0.39045781       0.44658788
8
Lattice="5.844286929282103 0.0 0.0 0.0 5.844286929282103 0.0 0.0 0.0 5.844286929282103" Properties=species:S:1:pos:R:3:forces:R:3 config_type=bulk energy=-40.575061055706655 virial="-14.49587161971488 -2.729386874950335 -1.9968930399865963 -2.729386874950335 -12.984401681073143 1.4079920899165974 -1.9968930399865963 1.4079920899165974 -14.246670504508877" label_model=mpa-0 structure_key=ee27754e8f56154a1f77da8fb68022828ef1d7d3643e64f8f58b2670eb1d6b0b pbc="T T T"
Si      -0.02751825      -0.09688676      -0.07282173       0.70725787       1.15628247       0.25668985
Si       1.37359006       1.53207096       1.39399240       0.86652172      -0.49075203      -0.26301569
Si      -0.12512103       2.91429325       2.85928901       0.85356147       0.15804050       0.80710691
Si       1.59956067       4.43413361       4.31297057      -0.65231792      -0.46727516      -0.62640247
Si       3.09510041       0.00728528       2.87717819      -1.37756048       1.04971619       0.27833053
Si       4.27211526       1.52893401       4.57192544       2.08076353      -1.98785164      -2.50874503
Si       3.10883277       3.01803637      -0.18268404      -2.35978762       1.38453748       2.41320205
Si       4.45620930       4.47045012       1.44045898      -0.11843858      -0.80269781      -0.35716615
8
Lattice="5.609868640988064 0.0 0.0 0.0 5.609868640988064 0.0 0.0 0.0 5.609868640988064" Properties=species:S:1:pos:R:3:forces:R:3 config_type=bulk energy=-42.43550063778228 virial="-5.556005439823911 0.5346888244469318 1.9863114469040692 0.5346888244469318 -5.690520333664855 0.5315912045073964 1.9863114469040692 0.5315912045073964 -5.531606321672749" label_model=mpa-0 structure_key=7b4bcbe97970bacbba19fe36b73342934a0f56aedeab93fa6c66b63567c6b5a1 pbc="T T T"
Si      -0.06666069       0.03734779       0.02574288       0.18352677      -0.65867961      -0.10457651
Si       1.33875971       1.40752798       1.38289388       1.00314903       0.30394354      -0.05472509
Si      -0.05510238       2.86654457       2.69946395       1.47873331      -0.81382781       1.43496209
Si       1.42266821       4.31583402       4.18963855      -0.36743393      -1.05496614       0.70937597
Si       2.81611514       0.03092034       2.89981559      -0.52840250      -0.25914970      -1.56498530
Si       4.23544078       1.36247676       4.10278740       0.54451939       0.81729386       0.75666007
Si       2.98445921       2.80659602      -0.02067265      -1.93909072      -0.47813202      -0.56389065
Si       4.17389678       4.09012885       1.46201837      -0.37500134       2.14351789      -0.61282059
8
Lattice="5.3421278500343465 0.0 0.0 0.0 5.3421278500343465 0.0 0.0 0.0 5.3421278500343465" Properties=species:S:1:pos:R:3:forces:R:3 config_type=bulk energy=-43.05808781512982 virial="6.73842088177326 0.5902136732830954 0.03390222507987778 0.5902136732830954 6.731628378453208 -0.32286922426799874 0.03390222507987778 -0.32286922426799874 6.74696886897844" label_model=mpa-0 structure_key=73a7202f8906f83eab1f7f0bc992314f5fb68306eee95e7fefa8e21e2958f4c0 pbc="T T T"
Si      -0.01852003       0.00044649       0.00383146       0.50854072      -0.05108856      -0.29305816
Si       1.34482735       1.33627046       1.32781401      -0.33506737      -0.07674163       0.14731389
Si       0.01211490       2.68509753       2.67455163      -0.24559881      -0.14590933      -0.18518057
Si       1.35574407       4.00055888       3.97610926      -0.04024441       0.28157070       0.35623949
Si       2.69339868       0.02470493       2.65915900      -0.19823032      -0.11614449       0.09320598
Si       4.00561151       1.33034341       4.01342313       0.08789954       0.32527369      -0.01284724
Si       2.65535525       2.65981515       0.01522407       0.26975968       0.28953192      -0.21947512
Si       4.00653217       4.03926166       1.32689456      -0.04705904      -0.50649231       0.11380173
8
Lattice="5.658289819253711 0.0 0.0 0.0 5.658289819253711 0.0 0.0 0.0 5.658289819253711" Properties=species:S:1:pos:R:3:forces:R:3 config_type=bulk energy=-42.0041647403141 virial="-7.689225555785354 -0.4679032214082419 -2.3537039881559485 -0.4679032214082419 -7.50825169076124 -0.16904475713475176 -2.3537039881559485 -0.16904475713475176 -7.259351017177257" label_model=mpa-0 structure_key=9faf6aa4fc39e6df5f3254561e90bd03f6e488ffdfb4dd5ecdc9e1709d6af652 pbc="T T T"
Si       0.01639291      -0.14086809      -0.10037972      -0.65394234       2.78274211       0.16072317
Si       1.35908330       1.44086192       1.35346706      -0.06900683      -1.27662175       0.60308057
Si      -0.06424038       2.93421737       2.67377116       0.54773460      -1.23704127       1.19898713
Si       1.27814959       4.21223776       4.26257307       1.85390242      -0.97172048      -1.17572185
Si       2.89160820      -0.09344602       2.78543798      -1.11876746       0.82666311       0.15705294
Si       4.18782470       1.44635283       4.11652734       0.14082354      -0.08538650       0.82208073
Si       2.72108349       2.81268301       0.10249691       1.17544705       0.65676503      -1.31508828
Si       4.37631978       4.34363918       1.37573034      -1.87619098      -0.69540025      -0.45111442
8
Lattice="5.783308703046832 0.0 0.0 0.0 5.783308703046832 0.0 0.0 0.0 5.783308703046832" Properties=species:S:1:pos:R:3:forces:R:3 config_type=bulk energy=-42.01424216091534 virial="-13.274291081998758 -0.33937272826972875 -0.1553520868749769 -0.33937272826972875 -13.2184009403897 -0.2807484001641847 -0.1553520868749769 -0.2807484001641847 -13.252660845252295" label_model=mpa-0 structure_key=c559c0a1760fb7882c689f0b357396b7a180cba9b4878fd92087308fd1027e60 pbc="T T T"
Si      -0.00806902       0.00740528      -0.04990109      -0.04273092       0.26919711       0.59984321
Si       1.49108698       1.49846044       1.47048601      -0.58244476      -0.42175826      -0.27463412
Si      -0.06884860       2.84337022       2.83894920       0.17711700       0.35340389       0.40890792
Si       1.35737664       4.32776340       4.34082156       0.15518536      -0.04356521      -0.29422470
Si       2.87400623       0.04357971       2.94758048      -0.21749411      -0.32242544      -0.17646737
Si       4.28186216       1.42862627       4.33018399       0.05350850       0.45664064       0.32955327
Si       2.80106726       2.95537965       0.03204700       0.68082247      -0.01295459      -0.10650087
Si       4.32952453       4.41312980       1.49955019      -0.22396354      -0.27853813      -0.48647736
8
Lattice="5.198296409128088 0.0 0.0 0.0 5.198296409128088 0.0 0.0 0.0 5.198296409128088" Properties=species:S:1:pos:R:3:forces:R:3 config_type=bulk energy=-41.24417227380613 virial="18.60325370069419 4.5475315376208965 0.8043464961210498 4.5475315376208965 18.487507534533854 -2.9134731814823884 0.8043464961210498 -2.9134731814823884 17.132299093593684" label_model=mpa-0 structure_key=a1866123aafe041ca45d0e6d971d11bee13712acc9f8f03242e1b558184166ff pbc="T T T"
Si       0.04405409      -0.00104087      -0.07439519      -0.53016617      -0.86212798       0.95849583
Si       1.25834413       1.38446844       1.12320594      -1.42158602      -1.91853606       3.51871166
Si      -0.00171583       2.69636018       2.59056726       0.51519501      -1.86279559       0.13347411
Si       1.31247650       3.95554645       3.83449067       0.80259809      -0.81220063       0.57123570
Si       2.59807268       0.04894065       2.60566819      -0.21539748       0.70397093      -1.64093585
Si       3.97868784       1.23964590       3.87047030      -1.30805169       2.08419177       0.29506924
Si       2.50690259       2.63012654       0.09162979       3.22433236       1.66558593      -2.93423802
Si       3.94480377       3.91283907       1.31889800      -1.06692410       1.00191163      -0.90181267
8
Lattice="5.7983772306292165 0.0 0.0 0.0 5.7983772306292165 0.0 0.0 0.0 5.7983772306292165" Properties=species:S:1:pos:R:3:forces:R:3 config_type=bulk energy=-41.71790171446533 virial="-13.764547243164994 -1.266422874206007 -1.5484588990557966 -1.266422874206007 -13.927928131900947 -0.23229607738651917 -1.5484588990557966 -0.23229607738651917 -13.762746490822256" label_model=mpa-0 structure_key=7fba45fffa07ffb60a05cf24944ed01cdb7070ab820f2142dbf9f44a38df4db6 pbc="T T T"
Si      -0.02482750      -0.02073068      -0.06562986       0.11894233       0.73419613       0.94235974
Si       1.52145580       1.53460172       1.51796421      -0.95934095      -0.84339278      -0.61242554
Si      -0.09504378       2.91708590       2.90221131       0.62921067       0.37902230       0.18389672
Si       1.45855219       4.41526348       4.36069102      -0.35058501      -0.71794639      -0.48110054
Si       2.91379381      -0.04010036       2.85539675      -0.20839483       0.72004653       0.53159294
Si       4.28522702       1.50774977       4.36705639       0.46436835      -0.94115012      -0.58466883
Si       2.86720115       2.82884661      -0.06646099      -0.17194106       1.01372732       0.69711246
Si       4.26795427       4.34726452       1.44672934       0.47774050      -0.34450299      -0.67676696
8
Lattice="5.469055452989629 0.0 0.0 0.0 5.469055452989629 0.0 0.0 0.0 5.469055452989629" Properties=species:S:1:pos:R:3:forces:R:3 config_type=bulk energy=-43.305495067281655 virial="-0.07442408029941648 0.17335559197481976 -0.3156695821926426 0.17335559197481976 -0.06423180478688316 -0.3683460176227678 -0.3156695821926426 -0.3683460176227678 -0.06700767033949616" label_model=mpa-0 structure_key=03bb191d0c3c74a669d4ffc86b0d297422fa351d508c5f828f25c5a85c8323de pbc="T T T"
Si       0.00094054      -0.01315382       0.00372637       0.17133725       0.13405526      -0.20655349
Si       1.37542729       1.35943270       1.37207512      -0.05622758      -0.06795208      -0.02797652
Si      -0.01880858       2.71789518       2.71709574       0.19174340       0.05065902       0.10449722
Si       1.37242090       4.08404895       4.08111349      -0.11883446      -0.05331607       0.17794557
Si       2.73736254      -0.01481996       2.74203593       0.03162677       0.09632112      -0.05389363
Si       4.09936739       1.36764491       4.09874815      -0.01825280      -0.08745881       0.12022752
Si       2.73556616       2.72830488       0.01319634       0.06290811       0.10615209      -0.07532896
Si       4.12571886       4.11774842       1.36961065      -0.26430070      -0.17846054      -0.03891771
8
Lattice="5.459786592581892 0.0 0.0 0.0 5.459786592581892 0.0 0.0 0.0 5.459786592581892" Properties=species:S:1:pos:R:3:forces:R:3 config_type=bulk energy=-43.26448888695843 virial="0.47317851842197856 -0.6747050828578417 0.5757546182314874 -0.6747050828578417 0.42028028287570346 0.07551149170096283 0.5757546182314874 0.07551149170096283 0.4361773609055879" label_model=mpa-0 structure_key=94208725ba50f62a431e177745fbeb14a198c645e2a6ccdd84fd53c1f670724f pbc="T T T"
Si      -0.01134072      -0.00569669      -0.01589520       0.01396018       0.02406334       0.35817150
Si       1.33730654       1.37638205       1.35880742       0.17918999       0.03604242       0.01042222
Si      -0.00986180       2.76113748       2.75292471      -0.08214177      -0.63059455      -0.02407270
Si       1.32721585       4.08650330       4.10322679       0.34602997       0.26370411      -0.14831242
Si       2.71653840      -0.03320634       2.70172865      -0.04992371       0.27950996       0.22252364
Si       4.08611554       1.34053914       4.12350360      -0.22430850       0.18740805      -0.44247864
Si       2.71825001       2.76189506      -0.02330499       0.03592485      -0.35206617       0.29342971
Si       4.11233457       4.07250123       1.37885591      -0.21873101       0.19193284      -0.26968330
8
Lattice="5.038734148941579 0.0 0.0 0.0 5.038734148941579 0.0 0.0 0.0 5.038734148941579" Properties=species:S:1:pos:R:3:forces:R:3 config_type=bulk energy=-37.38741766970127 virial="32.206783323128136 -11.099397283764484 -2.1480266766004266 -11.099397283764484 33.168025757455425 0.18823147869914955 -2.1480266766004266 0.18823147869914955 30.523283385725925" label_model=mpa-0 structure_key=2feef25ece62ded3c94baf0767fad9eb1c278228d84f44cb3f4c7a99d0a7070d pbc="T T T"
Si       0.07443908      -0.04648416      -0.10290321      -4.76518769       3.49636834       5.75115662
Si       1.47046402       1.22879141       1.27381061      -3.56208764       3.64143114      -2.08503775
Si       0.07890219       2.60432352       2.78591875       0.85366345      -3.35380085      -1.71839723
Si       1.26354552       3.93117454       3.86336210       3.58615368      -2.22825625      -1.50316057
Si       2.40276037      -0.13596400       2.39803904       3.51570724      -0.52954700       1.73264623
Si       3.70521272       1.28022411       3.82530621       1.03313059      -3.49201184      -2.43519026
Si       2.56796837       2.58121498      -0.15546874      -1.08997651       1.22541404       2.90630334
Si       3.80860282       3.56544757       1.43040434       0.42859689       1.24040242      -2.64832037
8
Lattice="5.6516307838062465 0.0 0.0 0.0 5.6516307838062465 0.0 0.0 0.0 5.6516307838062465" Properties=species:S:1:pos:R:3:forces:R:3 config_type=bulk energy=-41.59732119874762 virial="-6.000181307391915 -2.9522558108524093 -2.8255545470524606 -2.9522558108524093 -6.069699029007855 0.49026505418255345 -2.8255545470524606 0.49026505418255345 -8.09424989752892" label_model=mpa-0 structure_key=3e99b0706dc112fc2771190da1a550b4d472ae5959a6e7af2e08e589f72ea1c4 pbc="T T T"
Si       0.09878744      -0.03283352      -0.28683349      -2.51583267       2.35043007       3.36599478
Si       1.36693652       1.52588303       1.34457333      -0.14337943      -0.91761632       0.02935757
Si      -0.13839547       2.79576880       2.80516152       1.13438202       1.06963976      -0.05574910
Si       1.48749382       4.34406423       4.41197434       0.79834481      -3.03331847      -2.50105880
Si       2.65053299       0.02313938       2.93149938       1.19062219       0.53650727      -1.66425286
Si       4.18656116       1.44534044       4.21008593       0.13668330      -0.86511822      -0.57794409
Si       2.91471696       2.83959948      -0.06778271      -0.56162978       0.24510633       1.07224995
Si       4.23855391       4.26130811       1.34043418      -0.03919045       0.61436958       0.33140255
8
Lattice="5.4499277830754 0.0 0.0 0.0 5.4499277830754 0.0 0.0 0.0 5.4499277830754" Properties=species:S:1:pos:R:3:forces:R:3 config_type=bulk energy=-41.142870634715955 virial="3.5052609384970803 -9.627229274798577 0.19701491907740404 -9.627229274798577 4.6738271227340595 -0.25809420593944804 0.19701491907740404 -0.25809420593944804 2.595140860117092" label_model=mpa-0 structure_key=6d36f2e998ad57dceef81bad6948e44ab67e2b4c2797ce05e6c627930b0e6779 pbc="T T T"
Si      -0.02161088      -0.01858926       0.04428179       0.90917049      -1.44074333       0.39424174
Si       1.33707954       1.20076814       1.51399763      -0.83159081       2.22755611      -1.87813159
Si      -0.30397465       2.55034548       2.68324671       2.88776661       0.53648440       0.68491624
Si       1.48550915       3.97565430       4.11518377      -2.17446911       1.16950683      -1.71372509
Si       2.81103510       0.06686585       2.66840820      -0.46181886       0.17251485       3.47150268
Si       4.10343728       1.44151611       4.34050011       1.05729971      -2.96110547      -2.36670847
Si       2.86238397       2.76113598      -0.09539093      -2.49930380       0.95613911       3.90792810
Si       3.99154215       4.10853842       1.52481508       1.11294578      -0.66035250      -2.50002360
8
Lattice="5.311412695608414 0.0 0.0 0.0 5.311412695608414 0.0 0.0 0.0 5.311412695608414" Properties=species:S:1:pos:R:3:forces:R:3 config_type=bulk energy=-42.281369115908845 virial="9.801655328463186 -0.289340238700652 1.8212728512465988 -0.289340238700652 9.711895128674408 -0.06853218228804694 1.8212728512465988 -0.06853218228804694 9.75958958189068" label_model=mpa-0 structure_key=b4db3ad60818f9ac1a857cfc0836996fdc5c6eccda483e463985fe850f5b5e4d pbc="T T T"
Si       0.01252550      -0.01959125      -0.09856820       0.72716147      -1.10496519       1.33033862
Si       1.42432606       1.28736560       1.26161482      -0.06802758      -1.05838109      -0.79833049
Si       0.17366633       2.56402073       2.55501240      -2.12806940      -0.34230742      -0.06137691
Si       1.31261104       3.87209706       3.87082066       0.50053977       1.08131850       1.31457374
Si       2.65352128      -0.00067240       2.70143824      -0.69790105      -0.70729698      -0.69931551
Si       4.06589176       1.18150450       3.87639494      -0.11925883       2.49186118       0.39608685
Si       2.63871561       2.61040656      -0.07519724       1.95204088       0.52608075       0.13795597
Si       4.04676462       4.02489953       1.45180097      -0.16648527      -0.88630975      -1.61993226
8
Lattice="5.031557019028293 0.0 0.0 0.0 5.031557019028293 0.0 0.0 0.0 5.031557019028293" Properties=species:S:1:pos:R:3:forces:R:3 config_type=bulk energy=-38.661604864750466 virial="29.820921210014298 4.840035165300966 -6.369686153573447 4.840035165300966 31.786515868351497 -1.2463432902576395 -6.369686153573447 -1.2463432902576395 31.73706050962606" label_model=mpa-0 structure_key=1c945178af8a59d2c81fe5270f0e4378ed471942b597c19627116dd45fabddbc pbc="T T T"
Si       0.12701322      -0.02314513       0.08296046      -0.53334773       2.81918767      -0.96024671
Si       1.38611431       1.32426456       1.31284079      -2.69302423      -3.97314292       4.03065468
Si      -0.01499400       2.61312440       2.44442272       0.09234347      -0.35753791       1.29723658
Si       1.32851968       3.81654682       3.84780408      -0.55316980      -0.92174616      -1.94790890
Si       2.67719751      -0.05840652       2.58849553      -2.02036173       0.27950514      -0.37631962
Si       3.71126176       1.30071738       3.78395303       2.15664937       1.45469912       1.89311993
Si       2.39111544       2.51205642       0.14652894       3.77735630       2.29892167      -3.46310939
Si       3.76859696       3.88120142       1.17036069      -0.22644564      -1.59988661      -0.47342656
8
Lattice="5.6538664629460245 0.0 0.0 0.0 5.6538664629460245 0.0 0.0 0.0 5.6538664629460245" Properties=species:S:1:pos:R:3:forces:R:3 config_type=bulk energy=-42.413199144228535 virial="-8.092802787765397 1.667803491559466 1.963352170912397 1.667803491559466 -8.122551106718463 -1.2010684445971325 1.963352170912397 -1.2010684445971325 -8.181208023066207" label_model=mpa-0 structure_key=5dd2ab84c7b565389506f816e05ceb16bc81bf88530ed995d27dfdf8a7e70078 pbc="T T T"
Si      -0.10247418       0.07075198       0.00120979       0.88514422      -1.19517542       0.33921241
Si       1.46920912       1.36408707       1.34309284      -1.02858816       0.58498533       0.92015159
Si       0.05457334       2.81581535       2.94267263      -0.74659382      -0.37017884      -1.35652330
Si       1.40634761       4.23444483       4.22192180      -0.38450353       0.57852063       0.76912282
Si       2.74308479       0.11084288       2.94290502       0.47731201      -1.01504741      -1.00680578
Si       4.20432824       1.35006507       4.31004428      -0.17664474       1.48822528      -0.26983158
Si       2.74355401       2.84825483       0.03076079       0.77419568       0.05345429      -0.27342659
Si       4.17142564       4.28530705       1.41753860       0.19967834      -0.12478385       0.87810043
8
Lattice="5.411523661572087 0.0 0.0 0.0 5.411523661572087 0.0 0.0 0.0 5.411523661572087" Properties=species:S:1:pos:R:3:forces:R:3 config_type=bulk energy=-41.35110033732291 virial="2.822494868652399 2.39872594183746 -5.02722400940515 2.39872594183746 6.379165271261363 -4.7303136510122465 -5.02722400940515 -4.7303136510122465 6.793524397126508" label_model=mpa-0 structure_key=a6fdac9dc993d901b821623d5c0ec2a0213cef7ea55daeb188d3d06aa8134111 pbc="T T T"
Si      -0.06349828      -0.06168103       0.01073037       0.32674419       1.67834425       1.76532716
Si       1.32048967       1.33319309       1.38850056       0.77345868      -0.13623203      -0.49437845
Si      -0.09005179       2.59430401       2.75611478       3.20534069       4.62538837      -3.83423374
Si       1.15668516       4.22745520       4.06026870       2.50015407      -2.02541227      -2.01385528
Si       2.83424274      -0.02604030       2.67794927      -0.46956348       0.22231612       0.21381903
Si       4.39206864       1.34343651       3.97664201      -5.48128111      -2.86986091       3.38946508
Si       2.60376143       2.73568868      -0.12210195       0.33372536      -0.66083357      -0.31553472
Si       4.08361502       3.97353792       1.20900311      -1.18857839      -0.83370995       1.28939092
8
Lattice="5.299093208399171 0.0 0.0 0.0 5.299093208399171 0.0 0.0 0.0 5.299093208399171" Properties=species:S:1:pos:R:3:forces:R:3 config_type=bulk energy=-41.67148075535655 virial="11.375293429316581 0.9548143530199036 -3.2373209496859396 0.9548143530199036 10.313995197420967 0.016477705260519938 -3.2373209496859396 0.016477705260519938 11.042266428273567" label_model=mpa-0 structure_key=136832aefa6862332f49eda5fab562e79d05044032eb88343abff8dfa2e5c38e pbc="T T T"
Si       0.01915848      -0.02787705       0.02046372      -0.70302047      -0.45616755       0.18968771
Si       1.26342724       1.22395650       1.37116464       2.49086957       0.69932196      -1.99598853
Si      -0.01805082       2.51457503       2.49755111      -0.67400799       2.25767966       0.92894565
Si       1.17137073       4.13709563       3.76368896      -1.15695035      -3.52194502       1.98461793
Si       2.55900678       0.00374202       2.75124832       3.29373394       2.10809448      -0.93176095
Si       4.12800660       1.36789449       4.00455097      -2.24952619       0.10303180       0.57223641
Si       2.64892136       2.82471181      -0.02796770      -1.08780074      -1.22383243      -0.74528589
Si       3.92691736       4.02623932       1.38952202       0.08670224       0.03381709      -0.00245233
8
Lattice="5.524007735535564 0.0 0.0 0.0 5.524007735535564 0.0 0.0 0.0 5.524007735535564" Properties=species:S:1:pos:R:3:forces:R:3 config_type=bulk energy=-42.04327300174442 virial="-1.7073487765567208 -0.5314534761179495 0.16684441995937346 -0.5314534761179495 -0.10949836405264396 1.1834117383888219 0.16684441995937346 1.1834117383888219 -1.5405326025024761" label_model=mpa-0 structure_key=133157dd3e0f08ed8f8ab80326f7fd7c4b43ff855c6d58605630f8ea38f613a1 pbc="T T T"
Si      -0.02663529      -0.05172768      -0.06934629       1.91638973       0.97298082      -0.85264327
Si       1.33784348       1.34483444       1.33785480       0.81822569       0.16202106       0.54431407
Si      -0.07482638       2.77758235       2.72586417      -0.61350856      -1.76218737      -0.26474097
Si       1.27132478       4.02457794       4.00536203       1.72081817       1.57539178       0.57671099
Si       2.94821342       0.03360791       2.82678852      -1.47230050      -0.73942996      -1.03192781
Si       4.01723554       1.37241906       4.40903046       1.78201090      -0.52573418      -2.55690657
Si       2.76765746       2.79510140      -0.07416399      -1.73762230       1.28997426       1.74364920
Si       4.33190836       4.18112163       1.22741710      -2.41401313      -0.97301642       1.84154435
8
Lattice="5.692717224376236 0.0 0.0 0.0 5.692717224376236 0.0 0.0 0.0 5.692717224376236" Properties=species:S:1:pos:R:3:forces:R:3 config_type=bulk energy=-42.27079498794873 virial="-9.831375151735555 -0.04110552536946956 -0.40915819349451593 -0.04110552536946956 -9.793508595182365 0.2565654925902673 -0.40915819349451593 0.2565654925902673 -10.215021602965406" label_model=mpa-0 structure_key=d42b027c2dec0a37c49a04de580e4cc759b14d3b9bb0e2aa8fc60c7ea4fbfec9 pbc="T T T"
Si      -0.02372998      -0.10235010       0.05645349       0.19087060       0.37605731      -0.94077034
Si       1.26039808       1.35532885       1.43318413       0.77477485       0.33689263       0.10805296
Si      -0.02115971       2.90925355       2.75922614       0.00245407      -0.15821304       0.89793968
Si       1.45387879       4.20741553       4.35713572       0.08800147      -0.05710336      -0.53662832
Si       2.81572735       0.00711412       2.76511449      -0.24013521       0.09542106       1.16383966
Si       4.38108123       1.34659562       4.22164417      -0.92807899       0.50680614       0.28601143
Si       2.83058276       2.74822024       0.15303653       0.29293369      -0.02036206      -1.09816945
Si       4.21343816       4.36581775       1.41572151      -0.18082048      -1.07949868       0.11972438
8
Lattice="5.703487919765512 0.0 0.0 0.0 5.703487919765512 0.0 0.0 0.0 5.703487919765512" Properties=species:S:1:pos:R:3:forces:R:3 config_type=bulk energy=-42.11341009638883 virial="-10.502236339597038 -0.949963113432731 -1.2401045329556462 -0.949963113432731 -9.896122379190421 0.19678296900444042 -1.2401045329556462 0.19678296900444042 -10.025082291126532" label_model=mpa-0 structure_key=dd82c903e992970d228581c72ec7fc80aafa0b90883fb39e98b1ff4e9aa6485c pbc="T T T"
Si      -0.02396996       0.02039221       0.05316983       0.31502117       0.12195301      -0.29478860
Si       1.51002083       1.51486730       1.44140554      -0.98034580      -0.67797232      -0.19067071
Si      -0.09620981       2.75772636       2.84844371       0.92946622       1.13429389       0.36947315
Si       1.55269146       4.34672687       4.32681994      -1.26289789      -0.47288754      -0.62343933
Si       2.91409307      -0.03154604       2.70136552      -1.00294696       0.68554791       1.33059029
Si       4.18186050       1.39806870       4.22898566       0.67781997      -0.39239309       0.32485431
Si       2.88080278       2.84756785      -0.00170438      -0.19390558       0.22321217      -0.28125655
Si       4.17672627       4.26304427       1.44266259       1.51778889      -0.62175402      -0.63476256
8
Lattice="5.726898010886592 0.0 0.0 0.0 5.726898010886592 0.0 0.0 0.0 5.726898010886592" Properties=species:S:1:pos:R:3:forces:R:3 config_type=bulk energy=-41.097522326605635 virial="-9.927382481665402 0.2658457061198405 -4.310012215809717 0.2658457061198405 -10.348853165262167 -2.167568521570953 -4.310012215809717 -2.167568521570953 -10.026325172249688" label_model=mpa-0 structure_key=c163ebfdd223b39240c16073d2ef16d749f222cd938b8d92d37136ac441a0292 pbc="T T T"
Si      -0.19798170      -0.04022204       0.04382032       2.02524492       3.30791357      -1.62008797
Si       1.40720617       1.61652348       1.39603604       0.27126678      -2.11689536      -0.02340045
Si       0.00406130       2.96304958       2.68688122       0.65077995       0.94616832       1.58546185
Si       1.38194222       4.43941310       4.56178333       0.48837681      -1.19034707      -1.70519489
Si       2.85483589       0.03343445       2.96993226      -0.29318289       0.55009451      -0.70383250
Si       4.32355008       1.61592727       4.12371818      -0.12173517      -1.23170583       0.57420954
Si       2.92625052       2.78793049      -0.03812441      -0.00775614       1.62727035       0.26872063
Si       4.41916997       4.42567986       1.38711572      -3.01299425      -1.89249849       1.62412380
8
Lattice="5.074790413538493 0.0 0.0 0.0 5.074790413538493 0.0 0.0 0.0 5.074790413538493" Properties=species:S:1:pos:R:3:forces:R:3 config_type=bulk energy=-38.901362748473446 virial="29.153049706305616 -8.502122035645078 -5.802142299989109 -8.502122035645078 27.73162051295364 8.361662792904385 -5.802142299989109 8.361662792904385 27.228019092425228" label_model=mpa-0 structure_key=51a9077da8af4573add996af437c383b74bcd8270a3468bcb6fd748adc4019ec pbc="T T T"
Si      -0.00682965      -0.00588024      -0.10340213       0.39186618       2.33248882       3.18866771
Si       1.27825706       1.45215427       1.44739118       3.23746612      -3.70159231      -4.08925995
Si       0.03006526       2.46465436       2.61346115      -3.86948526       2.55903143       1.82604852
Si       1.22402168       3.77541210       3.92417430       0.31250719      -0.30170543      -2.08196544
Si       2.59735018      -0.07470314       2.64979386      -3.28966022       0.33043243      -0.81042725
Si       3.68992417       1.21823073       3.86485943       1.81082749       0.90883218      -0.44091997
Si       2.61833434       2.61811244      -0.07946409      -0.31663940      -0.10423149       3.19536953
Si       3.79991608       3.93092686       1.31455686       1.72311788      -2.02325564      -0.78751315
8
Lattice="5.6782591015028006 0.0 0.0 0.0 5.6782591015028006 0.0 0.0 0.0 5.6782591015028006" Properties=species:S:1:pos:R:3:forces:R:3 config_type=bulk energy=-42.294952937173306 virial="-9.084871783465443 0.7593921834327944 0.7024564409145819 0.7593921834327944 -8.921278033095772 0.9899105562585172 0.7024564409145819 0.9899105562585172 -9.075108993713968" label_model=mpa-0 structure_key=d21dd8e09244e45ceab85c38f526ab2d17298fce1f35278f3722000c20b21a58 pbc="T T T"
Si      -0.01118506      -0.05825330      -0.07383959      -0.14434080       0.08605640       0.11335689
Si       1.40375734       1.28175677       1.50115821      -0.08891046       0.97739554      -1.32454803
Si       0.06365083       2.80471639       2.82291935      -0.57860402       0.21689852      -0.26029288
Si       1.52679597       4.31568769       4.10411617      -0.85687198      -0.74540860       1.27718672
Si       2.86423181       0.01211379       2.81797653       0.32500366      -0.02628406      -0.33604093
Si       4.21188903       1.42821130       4.17573998       0.73167143       0.29180968       0.84509008
Si       2.86626064       2.90098376       0.00576726      -1.03045819      -1.17170958      -0.57864197
Si       4.14092752       4.21631191       1.39146573       1.64251037       0.37124210       0.26389012
8
Lattice="5.360709734846884 0.0 0.0 0.0 5.360709734846884 0.0 0.0 0.0 5.360709734846884" Properties=species:S:1:pos:R:3:forces:R:3 config_type=bulk energy=-42.97230894956591 virial="6.050663159870528 -0.5882246171013273 -0.33922297336797796 -0.5882246171013273 5.998649058296688 -1.6095985525521233 -0.33922297336797796 -1.6095985525521233 6.076715208255857" label_model=mpa-0 structure_key=397d780813ea5ff15d191174b52aa19fe3863e83ef0a9a860b80886ee560b671 pbc="T T T"
Si       0.02221985      -0.00018284       0.02571373      -0.28951631       0.26080753      -0.65692729
Si       1.35441596       1.31587700       1.33936411      -0.43180727       0.72747842      -0.31705509
Si      -0.01607792       2.68191189       2.63445255       0.51812649       0.59478508       0.08110707
Si       1.36496864       4.03640917       4.03694419      -0.51090359       0.04740040      -0.63804421
Si       2.65624206       0.06105996       2.65266629       0.31296505      -0.29353787       0.99360625
Si       4.05776893       1.38436522       3.97080917      -0.49375693      -0.24010468       0.85502706
Si       2.62767049       2.71181339       0.00663084       1.10656234      -0.17117645       0.17539060
Si       4.01473195       4.12246134       1.37860736      -0.21166979      -0.92565243      -0.49310439
8
Lattice="5.5732134366617085 0.0 0.0 0.0 5.5732134366617085 0.0 0.0 0.0 5.5732134366617085" Properties=species:S:1:pos:R:3:forces:R:3 config_type=bulk energy=-42.49593697863939 virial="-3.46429722189256 1.3682023641075154 1.6131261569421023 1.3682023641075154 -3.768384253167568 0.5467632616172818 1.6131261569421023 0.5467632616172818 -4.554879673768244" label_model=mpa-0 structure_key=7a7066a0a85b64e933029429cb73753cf68c25ee72e40af93d6c85c774bd8d08 pbc="T T T"
Si      -0.02285241      -0.01028806      -0.13179860       0.85762771       0.06699955       1.18051476
Si       1.40082744       1.38505925       1.50333369      -0.17066825       0.30079559      -1.00016614
Si      -0.02267555       2.81452817       2.85086704       0.23270574      -0.16395322      -0.81778940
Si       1.39716396       4.21752883       4.08269297       0.69385279      -0.16906005       0.96680562
Si       2.89050780       0.00682715       2.75854919      -0.74445556      -0.08156511      -0.03908807
Si       4.25107734       1.32810551       4.10103840      -1.04731251       1.41098173       1.15543937
Si       2.80912362       2.93874982       0.17115179      -1.00742104      -1.91107612      -1.98224948
Si       4.19060515       4.20910747       1.36658733       1.18567112       0.54687763       0.53653334
8
Lattice="5.092025080517636 0.0 0.0 0.0 5.092025080517636 0.0 0.0 0.0 5.092025080517636" Properties=species:S:1:pos:R:3:forces:R:3 config_type=bulk energy=-38.16513819956303 virial="25.7716728763719 -2.4469610813407767 8.877580099820134 -2.4469610813407767 29.236329643032864 10.799107619766449 8.877580099820134 10.799107619766449 29.883768635763484" label_model=mpa-0 structure_key=1030fc6b9fbdcddeb0b2b8ca93dc577b5abf905ba7ff9681217afb42dd7ecdaf pbc="T T T"
Si       0.16933977       0.09384968      -0.04775893      -0.69877773      -2.82989708       1.48363416
Si       1.07455196       1.29066006       1.45768153       3.06026538      -1.21021883      -2.99409924
Si       0.13080380       2.58744441       2.62736888      -6.63745950       1.28186921      -0.89955806
Si       1.23877336       3.73527226       3.80836735       2.53292621       3.76648938       0.83473516
Si       2.51312878       0.11827033       2.56404085       0.50350093       0.11900460       2.19885326
Si       3.94904490       1.28307072       3.96153157      -3.24865912       2.23027537      -1.06384755
Si       2.42837550       2.73247728       0.14209519      -0.57355086      -4.92349640      -0.97739830
Si       3.62523318       3.89872629       1.27377648       5.06175469       1.56597376       1.41768057
8
Lattice="5.247976030514889 0.0 0.0 0.0 5.247976030514889 0.0 0.0 0.0 5.247976030514889" Properties=species:S:1:pos:R:3:forces:R:3 config_type=bulk energy=-41.807322085781 virial="14.366209685325883 -2.64255582449455 0.9812031482909006 -2.64255582449455 13.736735652023507 0.8431837329091707 0.9812031482909006 0.8431837329091707 14.460008184735006" label_model=mpa-0 structure_key=b357fd96d099315317a031fb41b980e4bf627281c2dfd5a69717609c46ac1af0 pbc="T T T"
Si      -0.01145538       0.01774248       0.06853320       0.32401204      -0.79696538      -0.32557714
Si       1.26918470       1.30834455       1.33271987       3.38563922      -0.61455324      -1.95699099
Si       0.06221770       2.48098962       2.55704604      -0.64619185       2.18024673       3.04079181
Si       1.36837310       4.06574837       3.92510820      -1.37484295      -0.51459231      -0.91840615
Si       2.73420446       0.05000349       2.63004444      -0.26898872      -0.68560807      -1.35341045
Si       3.98381335       1.26920287       3.97446701      -0.07717780       1.14967971       0.15365453
Si       2.66723991       2.75596081      -0.11051684      -0.35193694      -1.57729463       1.06398988
Si       4.04730133       3.82009860       1.32022606      -0.99051299       0.85908718       0.29594851
8
Lattice="5.056496453463709 0.0 0.0 0.0 5.056496453463709 0.0 0.0 0.0 5.056496453463709" Properties=species:S:1:pos:R:3:forces:R:3 config_type=bulk energy=-37.55044645066063 virial="30.494601014141292 -4.7459549200365645 4.374600146255589 -4.7459549200365645 30.83638443462096 -10.542539612284468 4.374600146255589 -10.542539612284468 32.459923015749354" label_model=mpa-0 structure_key=40d5a2d4e44cb3cc562497be8f722839eb170b0f7ad99371bc324eb3f01d0212 pbc="T T T"
Si      -0.20601647       0.00621186      -0.02323402       8.08314814      -2.87941805       3.30626053
Si       1.33728173       1.31018250       1.17022505       0.74868815      -1.22266142      -3.36110070
Si       0.08749666       2.30037688       2.45554280      -3.11676076       2.46535368       2.28218601
Si       1.24237372       3.77527360       3.79105118      -3.89624680       0.39400945      -1.02915454
Si       2.33797931       0.03524127       2.55824997       2.76704854      -0.07634395      -0.67862190
Si       3.79887102       1.10940910       3.95344367      -5.14811139       5.94906424      -6.29988777
Si       2.53730326       2.71014811      -0.10349294       0.99866024      -3.16786631       0.37487900
Si       3.77861765       3.81291556       1.16880902      -0.43642612      -1.46213765       5.40543938
8
Lattice="5.101119510122706 0.0 0.0 0.0 5.101119510122706 0.0 0.0 0.0 5.101119510122706" Properties=species:S:1:pos:R:3:forces:R:3 config_type=bulk energy=-40.965105619552396 virial="24.37264855869037 -0.20001892919247422 -0.20126491057694026 -0.20001892919247422 24.377838113248995 0.9830319943723372 -0.20126491057694026 0.9830319943723372 24.38944983651814" label_model=mpa-0 structure_key=588d21dfa379cdc98c21a89ad4cc6df3b9634e66914bc16e637055a2a084acf7 pbc="T T T"
Si       0.00841468       0.00837701       0.01755863      -0.03212065      -0.15696407      -0.23418582
Si       1.29867319       1.27774756       1.28573346      -0.17240917       0.10910439       0.01793864
Si      -0.00572035       2.55219496       2.54995356      -0.16116365      -0.08406503      -0.22588040
Si       1.27932888       3.80402848       3.82061869      -0.17303323       0.35850925       0.23549184
Si       2.56166952      -0.01237219       2.55071213      -0.76102821       0.19566790       0.39416748
Si       3.80984272       1.26007208       3.80904793       0.55187450       0.03215307       0.26429793
Si       2.56195947       2.53854235      -0.01256367       0.11606186       0.20966809       0.25482192
Si       3.79574898       3.85280757       1.29840971       0.63181854      -0.66407361      -0.70665159
8
Lattice="5.258620360128173 0.0 0.0 0.0 5.258620360128173 0.0 0.0 0.0 5.258620360128173" Properties=species:S:1:pos:R:3:forces:R:3 config_type=bulk energy=-42.512220517554965 virial="12.4139598099493 -1.2387497781706212 -0.6681460263069999 -1.2387497781706212 12.218501915292308 1.4577759335037574 -0.6681460263069999 1.4577759335037574 12.279882470185305" label_model=mpa-0 structure_key=82b7e47200c6bfe0ff32629984165c547ec4c9b8ff0757c9a844ebdc47851683 pbc="T T T"
Si      -0.02912665       0.04543258       0.01813178      -0.44870974      -0.61754354       0.22952505
Si       1.32174481       1.28455156       1.29074030       0.05103826       0.38914880       0.54876406
Si       0.02158321       2.64165791       2.61191003      -0.11018158      -0.12627790       0.51158479
Si       1.29506814       4.02908843       3.96775225       0.03724266      -0.89584497      -0.04458555
Si       2.63806148       0.01389136       2.64711153      -0.10663161       0.23594364       0.07972534
Si       3.90196347       1.33588983       4.00185509       0.90698238       0.01288192      -1.24113589
Si       2.62471458       2.60078290      -0.00748975      -0.74179799       1.20507502       0.34970565
Si       3.90146581       3.94687752       1.34679870       0.41205763      -0.20338297      -0.43358344
8
Lattice="5.781634070903081 0.0 0.0 0.0 5.781634070903081 0.0 0.0 0.0 5.781634070903081" Properties=species:S:1:pos:R:3:forces:R:3 config_type=bulk energy=-41.993314790853624 virial="-13.280866645604318 -0.3200720109851628 -0.29203667739253664 -0.3200720109851628 -13.15850065606515 -0.7888358634342071 -0.29203667739253664 -0.7888358634342071 -13.306408879982827" label_model=mpa-0 structure_key=3ad176328a5273de60cc71bb46fc0919209079fce5b6619a6f5236b05fac8111 pbc="T T T"
Si      -0.06562342      -0.06660181      -0.02685603       0.64722465       0.20677978       0.14001545
Si       1.43603636       1.48080511       1.36858448      -0.26555706      -0.61459343       0.13087520
Si       0.03632196       2.84610102       2.85842381       0.02588076       0.10953955       0.48476372
Si       1.47710265       4.33745392       4.29641914      -0.30204119      -0.06262258       0.02429585
Si       2.84073501       0.00179451       2.80408083       0.64696359       0.22450359       0.59330552
Si       4.37957182       1.45481027       4.40636397      -0.67932055      -0.20290751      -0.74443408
Si       2.88152762       2.91227579       0.04814744       0.32690719      -0.00193403      -0.49433816
Si       4.37001042       4.27104399       1.47972305      -0.40005739       0.34123462      -0.13448350
8
Lattice="5.579312380648369 0.0 0.0 0.0 5.579312380648369 0.0 0.0 0.0 5.579312380648369" Properties=species:S:1:pos:R:3:forces:R:3 config_type=bulk energy=-42.013701117367845 virial="-4.204468338153726 0.07370690861060192 -1.2885356280896576 0.07370690861060192 -3.232326992261818 -5.456095053570603 -1.2885356280896576 -5.456095053570603 -2.884180636119981" label_model=mpa-0 structure_key=3b4e5d14b686eb42a04f4e6f5f4483420cab78f6432afe1273410a565e0b22bc pbc="T T T"
Si       0.05098061       0.07406948       0.09231375       0.56854094       0.26424626      -1.01506830
Si       1.49794856       1.40470735       1.51415542      -0.49733535       0.26144354      -0.68774851
Si      -0.04037227       2.75246551       2.79370762       0.99733265       1.04164641      -0.32225223
Si       1.57659572       4.20399485       4.16643735      -4.40675502       0.43942226      -0.21694693
Si       2.77767866      -0.13502620       2.85973295       1.81620175       2.22063923      -1.34922141
Si       4.19792128       1.44834771       4.13961946      -0.68817215      -0.67719483       1.01263009
Si       2.66684282       2.92432161      -0.11684489       2.77340575      -2.33582765       2.64952998
Si       4.23393351       4.29134618       1.37355675      -0.56321856      -1.21437520      -0.07092267
8
Lattice="5.631222436795831 0.0 0.0 0.0 5.631222436795831 0.0 0.0 0.0 5.631222436795831" Properties=species:S:1:pos:R:3:forces:R:3 config_type=bulk energy=-42.854086340972856 virial="-7.2362519298039665 -0.41013411148187817 0.5532433543570237 -0.41013411148187817 -7.190195594134429 -0.5004777837163571 0.5532433543570237 -0.5004777837163571 -7.2101247579041505" label_model=mpa-0 structure_key=61cbd64a0cf3472c44e60d7574dcdab62f69076a94826c68d7b0fdcf5f14387f pbc="T T T"
Si      -0.02414121      -0.00248086       0.04716898       0.31006069      -0.18696554      -0.41756142
Si       1.44545113       1.35595475       1.42312681      -0.32859798       0.51366359      -0.28165847
Si      -0.02074112       2.84988563       2.74913290       0.51487940      -0.69096548       0.73064495
Si       1.44796368       4.20242630       4.20233961      -0.57977058       0.01785388       0.34790403
Si       2.77774001      -0.03884749       2.80908803       0.51125036       0.16815977       0.25620991
Si       4.21073762       1.41223613       4.23696761       0.24888481      -0.15170397      -0.34579164
Si       2.87821846       2.81221551      -0.00063356      -0.51507791      -0.18766717       0.05090906
Si       4.22127442       4.18329395       1.43648511      -0.16162879       0.51762492      -0.34065642
8
Lattice="5.231714170310779 0.0 0.0 0.0 5.231714170310779 0.0 0.0 0.0 5.231714170310779" Properties=species:S:1:pos:R:3:forces:R:3 config_type=bulk energy=-42.3871824553278 virial="14.0619100874873 0.3226333221914655 -0.17070996921705375 0.3226333221914655 14.152325145018958 0.25339601256977257 -0.17070996921705375 0.25339601256977257 14.076092461360945" label_model=mpa-0 structure_key=9589abb870abf9fe560fb845162ccb808c6a8be7a0330889612d2cd8f3c16d3e pbc="T T T"
Si       0.02006502       0.00230711      -0.00395260      -0.83443170      -0.33468417      -0.24561190
Si       1.26102124       1.31193508       1.27983787       0.53620056       0.09906583       0.37555708
Si      -0.02638595       2.60499310       2.59665228       0.52199220       0.08899060       0.58212695
Si       1.31236521       3.93339202       3.92103873      -0.11381313      -0.64113100       0.06292304
Si       2.57896107       0.01226582       2.62137089       0.07310602      -0.00307462      -0.52034562
Si       3.90551164       1.30144263       3.89436912       0.19781852      -0.12903369       0.43098493
Si       2.62154852       2.59322071       0.01152200       0.03491891       0.36476492      -0.09825755
Si       3.93140704       3.91302489       1.34358059      -0.41579138       0.55510213      -0.58737693
8
Lattice="5.811954599649567 0.0 0.0 0.0 5.811954599649567 0.0 0.0 0.0 5.811954599649567" Properties=species:S:1:pos:R:3:forces:R:3 config_type=bulk energy=-41.93630291634898 virial="-14.190885643470153 0.010391846245379604 -0.07708482455532027 0.010391846245379604 -14.195631654983035 -0.11944334208088872 -0.07708482455532027 -0.11944334208088872 -14.179151168447913" label_model=mpa-0 structure_key=d6d80ad5c4674ba07d67205921f42c3935121bfb026e0416f587b42aede7da4c pbc="T T T"
Si       0.00585586      -0.01450319       0.00003326       0.03245682       0.18386805      -0.06536122
Si       1.45331265       1.44371847       1.45519087      -0.04641202       0.14784894      -0.03988635
Si      -0.02204389       2.92437901       2.90016661       0.17889336      -0.17868320       0.06655372
Si       1.47325716       4.37693468       4.33470075      -0.22185919      -0.21360634       0.17445080
Si       2.89740995      -0.01631672       2.91038295       0.10859764       0.24034790      -0.09585531
Si       4.33775093       1.44778792       4.36649661       0.14306743       0.04417024      -0.03591951
Si       2.91699988       2.92567502      -0.00586064      -0.08181713      -0.09665380       0.08078198
Si       4.37189888       4.37897123       1.45944361      -0.11292691      -0.12729179      -0.08476412
8
Lattice="5.19549860735804 0.0 0.0 0.0 5.19549860735804 0.0 0.0 0.0 5.19549860735804" Properties=species:S:1:pos:R:3:forces:R:3 config_type=bulk energy=-40.75351847539263 virial="19.06927466597558 -7.203992065533259 4.511191966995628 -7.203992065533259 19.03091133803522 -1.2321160631945158 4.511191966995628 -1.2321160631945158 18.064968213997982" label_model=mpa-0 structure_key=c42c22fd4d37b6f3f8ece8de070f59c8daa184cabe92f4d4ba39048de7082f7a pbc="T T T"
Si       0.07562807       0.04891273      -0.08418621       0.71010766      -1.41685476       3.27206807
Si       1.30395533       1.34450878       1.37967352      -0.68217245       0.54316280      -3.06578724
Si      -0.02067520       2.57543661       2.51909645      -0.90690311      -1.55260020       2.29136129
Si       1.14576893       3.93609992       3.75785380       2.46989470      -0.75423076       0.68637490
Si       2.50207812       0.14118383       2.56489735       2.81422910      -2.73237309       1.56108539
Si       3.94152110       1.21000378       4.01464741      -1.79201660       1.96831172      -2.37444770
Si       2.60868365       2.58088408       0.00792780      -0.69557167       1.13717638      -0.65718245
Si       3.96855757       3.83576182       1.35117611      -1.91756764       2.80740790      -1.71347225
8
Lattice="5.5304080147972385 0.0 0.0 0.0 5.5304080147972385 0.0 0.0 0.0 5.5304080147972385" Properties=species:S:1:pos:R:3:forces:R:3 config_type=bulk energy=-40.59630549430588 virial="-0.627805305522756 2.300741222443046 -6.624510133036095 2.300741222443046 -0.05822794708519475 -7.117809238568974 -6.624510133036095 -7.117809238568974 2.5178051017513927" label_model=mpa-0 structure_key=e4315ed2bf4e4b138324068565efdb981140eff4b865f3760b460d7ae33ee97d pbc="T T T"
Si      -0.05976110       0.11942434       0.21218355       1.66731227       0.08548967      -1.75226735
Si       1.38882094       1.53428960       1.35431034       0.56485620      -2.66567097       1.08690757
Si       0.04396589       2.51213819       2.81581589       0.70120066       3.72848253      -0.31096829
Si       1.39483325       4.24320740       4.16603846      -2.10917240      -0.11202105      -0.11247253
Si       2.78268689      -0.19262267       2.72168625       0.27132995       2.38071229       0.03771704
Si       4.35572920       1.27156310       4.09102214      -3.75383657      -0.82287878       1.46473290
Si       2.45510859       2.81687591      -0.02983967       4.27498871       0.48688034      -0.52739149
Si       4.35952120       4.25638914       1.49910520      -1.61667881      -3.08099403       0.11374216
8
Lattice="5.6506095893463595 0.0 0.0 0.0 5.6506095893463595 0.0 0.0 0.0 5.6506095893463595" Properties=species:S:1:pos:R:3:forces:R:3 config_type=bulk energy=-42.682082087845565 virial="-8.112362680684841 0.05905255462392044 -0.19862879102807124 0.05905255462392044 -7.924626285236153 -1.0962645618846483 -0.19862879102807124 -1.0962645618846483 -8.21065182841329" label_model=mpa-0 structure_key=80c7efa04cd2b791b2bf777b62733b8311c333f1c4d0dff2b9afb58b09333be0 pbc="T T T"
Si       0.12506468       0.00918103      -0.02244761      -0.36324243      -0.18472835       0.27698590
Si       1.44026531       1.47479380       1.43843891      -0.19781882      -0.41946515      -0.01781575
Si      -0.03726498       2.85076833       2.79884637       0.42879396      -0.31247397       0.39594864
Si       1.46220708       4.22569909       4.14519839      -0.29079050      -0.35082432       0.87065550
Si       2.80083814       0.01260610       2.87786722       0.62022862       0.28307590      -0.46553037
Si       4.30488448       1.36375107       4.24494567      -0.39698797       0.34719453       0.27516273
Si       2.81085725       2.79175282       0.03194443       0.83672895       0.58350908      -0.26244646
Si       4.30422620       4.28914927       1.50706153      -0.63691180       0.05371228      -1.07296018
8
Lattice="5.838311892171536 0.0 0.0 0.0 5.838311892171536 0.0 0.0 0.0 5.838311892171536" Properties=species:S:1:pos:R:3:forces:R:3 config_type=bulk energy=-41.737146838097885 virial="-15.007346989642562 -0.004861262914582997 0.2882828914191143 -0.004861262914582997 -15.003258821682357 0.013885200607032466 0.2882828914191143 0.013885200607032466 -14.987741535904753" label_model=mpa-0 structure_key=c1bfac971f9d583143aa6ae18d32e5ce47582a1225f9814db9409584bbb91669 pbc="T T T"
Si      -0.00097588       0.00918160       0.01049806       0.18987372      -0.21556129      -0.08767366
Si       1.46538991       1.43291053       1.47557631       0.06393695       0.27387060      -0.07933942
Si      -0.00516911       2.92771389       2.91913659       0.19201898      -0.17611973       0.06367776
Si       1.49204398       4.36954672       4.37529170      -0.11705383       0.09034534       0.07758136
Si       2.94390404      -0.00896570       2.91113223      -0.07026542      -0.05669477       0.09364342
Si       4.39451590       1.44867063       4.39017961       0.00016564       0.11053691      -0.09605223
Si       2.96705084       2.92081748       0.01018090      -0.33350114      -0.20139416      -0.04685262
Si       4.38878674       4.36256887       1.45094075       0.07482511       0.17501710       0.07501540
8
Lattice="5.059064146832746 0.0 0.0 0.0 5.059064146832746 0.0 0.0 0.0 5.059064146832746" Properties=species:S:1:pos:R:3:forces:R:3 config_type=bulk energy=-38.94180182538315 virial="28.600301861097158 3.768707089932283 0.7893232475286242 3.768707089932283 30.270247054080667 5.503015906212215 0.7893232475286242 5.503015906212215 29.960134615408407" label_model=mpa-0 structure_key=1dee4872994877e78026c2ff606f6826cfa37e7a24b4b141992cbfe6e4571120 pbc="T T T"
Si       0.06574405      -0.03922437      -0.06869569      -2.83322657       1.28039331       1.73594715
Si       1.36861583       1.15034371       1.17961759      -0.95783633       2.52801399       0.49832719
Si      -0.05794002       2.49968584       2.62839496       0.89486266       0.05732951      -4.94232047
Si       1.13297886       3.75257440       3.77950080       2.59720447      -0.47047676      -0.48099549
Si       2.48447765      -0.08466835       2.52364173      -0.70849942       0.91447650       2.31544061
Si       3.79453800       1.26329237       3.71704012      -1.92173682      -1.88339107       2.12285883
Si       2.57267722       2.63713262      -0.02789798      -1.44605414      -2.50339834      -1.72377802
Si       3.64331896       3.83064306       1.24651292       4.37528615       0.07705286       0.47452021
8
Lattice="5.257806171692051 0.0 0.0 0.0 5.257806171692051 0.0 0.0 0.0 5.257806171692051" Properties=species:S:1:pos:R:3:forces:R:3 config_type=bulk energy=-42.605458516529936 virial="12.11729863276019 -0.8789998755108991 0.2688181836850239 -0.8789998755108991 12.159109460319632 -0.501957314452469 0.2688181836850239 -0.501957314452469 12.104607122110796" label_model=mpa-0 structure_key=7e0270c511ee641e91e6bc4da59b2d8918d3f93f918bec77f3765882f997557f pbc="T T T"
Si      -0.01043569      -0.00947382      -0.01001414      -0.13120523      -0.17760008      -0.01398896
Si       1.28494512       1.29599940       1.31781393       0.16451911       0.20644992      -0.15071879
Si       0.00246023       2.63090599       2.64265461       0.29702890      -0.11585532       0.31030446
Si       1.35769674       3.95331400       3.94527905      -0.57922975       0.00790284      -0.05790456
Si       2.63008460      -0.01605807       2.60471601      -0.15366843       0.39702646       0.07800138
Si       3.92696722       1.30060764       3.92301747      -0.04529138       0.18225940       0.27776847
Si       2.60987177       2.63857556       0.00056015       0.42788936      -0.35799299       0.39654869
Si       3.95271700       3.93439705       1.36496174       0.01995741      -0.14219023      -0.84001068
8
Lattice="5.191087201183171 0.0 0.0 0.0 5.191087201183171 0.0 0.0 0.0 5.191087201183171" Properties=species:S:1:pos:R:3:forces:R:3 config_type=bulk energy=-40.955973601879066 virial="17.42180354971293 -5.700024865456649 0.015975197578301785 -5.700024865456649 18.60860662956771 8.385280273301216 0.015975197578301785 8.385280273301216 18.181030042858435" label_model=mpa-0 structure_key=ab268047f71b9b59e90fb2edb17feeae03d2ff229b4e6998cfd4c0f9987d33e4 pbc="T T T"
Si      -0.00779834       0.08389707      -0.07474695      -1.44197561       0.88851633       1.30776164
Si       1.24822697       1.15187898       1.40463871       1.56868355       1.26594174      -1.97915898
Si       0.10982784       2.64250246       2.48229289      -1.42044071       0.57454386       1.34944149
Si       1.20798492       4.02905386       3.93711020       2.17435982      -2.29119428      -1.26076586
Si       2.67149910      -0.01077059       2.59729902      -1.54712527      -0.83172155       0.62773336
Si       3.82945305       1.29858081       3.82877150       2.16870599       1.33900362      -0.70228916
Si       2.72278821       2.63663502      -0.09309683      -2.63701531       0.33952671       1.65601641
Si       3.89137473       3.99477188       1.28631495       1.13480752      -1.28461643      -0.99873889
8
Lattice="5.742319814156176 0.0 0.0 0.0 5.742319814156176 0.0 0.0 0.0 5.742319814156176" Properties=species:S:1:pos:R:3:forces:R:3 config_type=bulk energy=-41.27265992390022 virial="-10.537270353497638 -1.9036661968874624 -0.2650565956195889 -1.9036661968874624 -11.76815372486067 -0.15354909821860108 -0.2650565956195889 -0.15354909821860108 -10.278170560515921" label_model=mpa-0 structure_key=3ca65819cba283a43c5f1dd3dcbbaa7988a5c280f0f24dbd969b3852cbdfe854 pbc="T T T"
Si      -0.03868061      -0.18297270       0.00232268      -0.45486297       2.21384139       0.28828438
Si       1.33376965       1.46250239       1.48184276       1.34294306      -1.18395320      -1.06894310
Si       0.02992284       2.92906696       2.76445644       0.50514745      -1.23657909       1.60710420
Si       1.28179616       4.29910754       4.33165572       1.18910144      -0.32976367      -0.48895340
Si       2.83711803      -0.22895365       2.87576320       0.25069888       1.65808592      -0.14507754
Si       4.34203274       1.53011117       4.18551942      -0.72059758      -1.17179030       0.65421269
Si       2.85513422       3.00920280      -0.04758540      -0.02733598      -1.45534069       0.24938782
Si       4.44071386       4.13056807       1.46764789      -2.08509429       1.50549965      -1.09601505
8
Lattice="5.189080326169947 0.0 0.0 0.0 5.189080326169947 0.0 0.0 0.0 5.189080326169947" Properties=species:S:1:pos:R:3:forces:R:3 config_type=bulk energy=-42.03489074420784 virial="17.29902456421884 -0.8314339602989 -0.040903744069020635 -0.8314339602989 17.22788855761832 -0.13174314220503766 -0.040903744069020635 -0.13174314220503766 17.26575823719713" label_model=mpa-0 structure_key=150fd9c867fbccb419856217db170a6d33224c127fd9136df4472b40b46aee6a pbc="T T T"
Si      -0.00341031       0.00976330      -0.00259827       0.10706611       0.01276628       0.21943954
Si       1.30421712       1.33351963       1.31086881      -0.01323668      -0.53820281      -0.52589622
Si       0.01511533       2.57441808       2.59818524      -0.18989052       0.58796730       0.18831074
Si       1.30763342       3.88198844       3.90675433      -0.18630571       0.50317069      -0.43632684
Si       2.60106276       0.02500103       2.58242948      -0.29838632      -0.40821854       0.15758324
Si       3.89260825       1.30125111       3.87241331      -0.05700135       0.03442926       0.41416607
Si       2.58763639       2.60632669      -0.00767581       0.49973243      -0.17873406       0.16251149
Si       3.89273841       3.88898422       1.31541783       0.13802203      -0.01317812      -0.17978800
8
Lattice="5.225933949815358 0.0 0.0 0.0 5.225933949815358 0.0 0.0 0.0 5.225933949815358" Properties=species:S:1:pos:R:3:forces:R:3 config_type=bulk energy=-41.5629209936149 virial="16.07393999439371 2.3613491379894915 7.073120873598244 2.3613491379894915 15.603352516483035 -0.8452561628368714 7.073120873598244 -0.8452561628368714 16.059009848412995" label_model=mpa-0 structure_key=87937bcd0f611020413a0fe8b2d51502e8944e9884dbcecda65ebe6f4a72ff64 pbc="T T T"
Si      -0.01084711       0.02779570      -0.00929753      -0.41450540      -2.33887275      -1.09181636
Si       1.19226158       1.25021053       1.23014940       1.86101557       2.24198567       1.82599973
Si      -0.07588450       2.72742994       2.59871023       1.29242491      -2.11608547       0.83168381
Si       1.40738897       3.89421379       3.88210259      -2.22071345       0.15844459       0.55433103
Si       2.58897276       0.01972500       2.68866144      -0.80167891       0.13066394      -2.80500185
Si       3.90698218       1.19618130       3.87244095       0.93280422       2.46913657       0.64833106
Si       2.63740457       2.65471140      -0.05453588       0.27962209      -1.87976563       1.01542399
Si       3.89834001       3.92154401       1.33288247      -0.92896903       1.33449308      -0.97895141
8
Lattice="5.752476485684625 0.0 0.0 0.0 5.752476485684625 0.0 0.0 0.0 5.752476485684625" Properties=species:S:1:pos:R:3:forces:R:3 config_type=bulk energy=-41.540972620758524 virial="-11.363565215694331 -1.1622128390939381 -1.080048474418738 -1.1622128390939381 -11.70592464335226 0.04024033850279785 -1.080048474418738 0.04024033850279785 -10.974527372489776" label_model=mpa-0 structure_key=860f0be3329bc05d9f30fde5c270ef793fb1416c301d28fd2c73ac9dcf851cf1 pbc="T T T"
Si      -0.00601298       0.03034059      -0.16643541       0.32096821      -0.74386763       1.20294393
Si       1.22965949       1.34929170       1.46515070       1.93303598       0.05475303      -1.04288407
Si      -0.02448922       2.69347574       2.82934891      -0.48575286       1.91098228       0.72998747
Si       1.52693163       4.36581511       4.29244162      -0.90949460      -1.53235323       0.05853945
Si       2.81996881      -0.05547546       2.91993026       0.30571342       0.84420677      -0.89130863
Si       4.32229832       1.31744582       4.30984656      -0.79431527       1.13924918      -0.50600849
Si       2.94007846       2.91904465      -0.03419299      -0.49693433      -0.35747898       0.71450671
Si       4.33358003       4.45978386       1.43858670       0.12677944      -1.31549141      -0.26577636
8
Lattice="5.493399587427029 0.0 0.0 0.0 5.493399587427029 0.0 0.0 0.0 5.493399587427029" Properties=species:S:1:pos:R:3:forces:R:3 config_type=bulk energy=-42.4755818943659 virial="0.3646374780634521 0.8286764651367171 3.4683022832664476 0.8286764651367171 -0.43778857846688674 -2.1231323050241206 3.4683022832664476 -2.1231323050241206 0.34453141954442096" label_model=mpa-0 structure_key=89b5a9af26f3f852bbd2513e4d5c33a292f03153576ead4f730e986fd038b461 pbc="T T T"
Si      -0.03869067       0.03727276      -0.08230104       2.06693750      -1.08557078       1.27542794
Si       1.36193458       1.35606857       1.38087258       0.32379663       0.39492493       0.00385924
Si       0.05212942       2.97696368       2.61994260       0.07340177      -1.96762871       0.80357800
Si       1.45992008       4.17786332       4.06788357      -0.76218703      -0.53111773       0.94047733
Si       2.80030336      -0.05759515       2.78905420       0.60726251       0.91278580      -1.36389799
Si       4.27130194       1.26356828       4.09490724      -1.65810599       2.98867451      -1.58066129
Si       2.79055789       2.79560566       0.01220976      -0.51939973      -1.78100919      -1.12501195
Si       4.13947688       4.11631036       1.21215078      -0.13170567       1.06894116       1.04622873
8
Lattice="5.797165705509079 0.0 0.0 0.0 5.797165705509079 0.0 0.0 0.0 5.797165705509079" Properties=species:S:1:pos:R:3:forces:R:3 config_type=bulk energy=-41.32179292569537 virial="-13.483529368732297 -1.529761258900344 -1.0062215550859683 -1.529761258900344 -12.983928309974818 -1.7281096238131932 -1.0062215550859683 -1.7281096238131932 -13.414034157909642" label_model=mpa-0 structure_key=97b1fcf16dbdac87a1e7c493a64e89ce8f5d102738e9a7f595b3b162d327fc51 pbc="T T T"
Si      -0.06110386      -0.03611276      -0.06770568       1.20207668       0.79265603       0.70521243
Si       1.37960488       1.56158821       1.56860482       0.15617733      -0.94160987      -1.03467698
Si      -0.04882946       3.00724275       2.86158472       0.45426322      -0.10245212       1.01085203
Si       1.58563884       4.31099515       4.43106309      -1.50707467       0.03598253      -0.57631498
Si       2.81581445       0.01404835       3.04872452       0.77881825       0.53081730      -0.91415219
Si       4.32341521       1.45519326       4.40165017       0.13230748      -0.06217365      -0.82934532
Si       2.90186871       2.83525963      -0.07852704       0.44246328       0.54128201       1.85595645
Si       4.46629335       4.50792438       1.48773523      -1.65903157      -0.79450224      -0.21753145
8
Lattice="5.3774339188631615 0.0 0.0 0.0 5.3774339188631615 0.0 0.0 0.0 5.3774339188631615" Properties=species:S:1:pos:R:3:forces:R:3 config_type=bulk energy=-43.07569673785525 virial="5.053269253681217 -0.6079731767517631 0.5848658213694411 -0.6079731767517631 4.941292791768562 -0.6266829431834683 0.5848658213694411 -0.6266829431834683 4.942570400632502" label_model=mpa-0 structure_key=8d239cc2cf90788883f3b7a1f2974cc6ee98d179a0f3b7d1ea89e10e291830be pbc="T T T"
Si       0.02925808      -0.03768171       0.06966852      -0.01142613       0.48778596      -0.76136028
Si       1.39880174       1.34986548       1.35655386      -0.57894900       0.40095766      -0.32048218
Si       0.00128929       2.71753973       2.68209284       0.10654783      -0.60947039       0.05360289
Si       1.35546085       3.96721245       4.05134563      -0.17673883       0.87744999      -0.14593534
Si       2.66042878       0.01718011       2.67280231       0.28047650      -0.48134813       0.63001792
Si       4.01998509       1.35468012       4.01925327       0.59808832      -0.52221263       0.14608478
Si       2.71240807       2.68943725      -0.03363772       0.28965683      -0.02331671       0.65973299
Si       4.05126056       4.04882365       1.38081822      -0.50765551      -0.12984576      -0.26166078
8
Lattice="5.836828373319805 0.0 0.0 0.0 5.836828373319805 0.0 0.0 0.0 5.836828373319805" Properties=species:S:1:pos:R:3:forces:R:3 config_type=bulk energy=-40.16364210126337 virial="-12.543981550081691 -0.8061214885555826 -1.760641929162968 -0.8061214885555826 -13.391673304027561 -0.9768815498937753 -1.760641929162968 -0.9768815498937753 -11.784289968994972" label_model=mpa-0 structure_key=722a62c23963245fa86cf00ea69e122880af8b11a7b9acb84b5341008d0584cd pbc="T T T"
Si      -0.08288573      -0.02056576      -0.11645013       0.65404149       0.36575621       1.23732508
Si       1.49070280       1.57703859       1.52225764      -0.21392350      -1.65110355      -0.78505117
Si      -0.13169903       2.69973325       2.89988973       1.28986251       1.19191819       0.53766024
Si       1.65189171       4.40477897       4.52442020      -2.16980512      -0.63566376      -0.32450885
Si       2.81467935      -0.20832986       2.99471694       1.28149822       1.70229415      -1.09868952
Si       4.24084041       1.60205180       4.38522238       0.48244131      -2.49090909      -0.81423816
Si       3.06282686       2.98351276      -0.06329441      -1.05389373      -0.00551351       1.52624649
Si       4.43756044       4.14966476       1.50485957      -0.27022120       1.52322136      -0.27874410
8
Lattice="5.213808055666383 0.0 0.0 0.0 5.213808055666383 0.0 0.0 0.0 5.213808055666383" Properties=species:S:1:pos:R:3:forces:R:3 config_type=bulk energy=-41.98174816145213 virial="15.62151381922412 -0.49364761332308277 -0.4746639474495128 -0.49364761332308277 15.804652655590992 3.6346651632491986 -0.4746639474495128 3.6346651632491986 15.914140259748503" label_model=mpa-0 structure_key=09b4e0e08dca9b94df8b7e651ff531ade074e867eca95b8de507912abcdf07dc pbc="T T T"
Si       0.00554886       0.06910426       0.05263102      -0.68324334      -1.56270437      -0.48434321
Si       1.32628034       1.31026755       1.25466625       0.92584905       0.08472366       1.01798607
Si       0.00579743       2.51919087       2.60875909       0.14211998       1.08486433       0.13566127
Si       1.31651139       3.92293107       3.93427558      -0.34179404       0.22643863      -0.50170260
Si       2.69930442       0.03037356       2.61558911      -1.53163204       0.09569430       0.27743828
Si       3.88253069       1.33578335       3.96968721       1.06702199      -0.70429070      -0.61323312
Si       2.65141365       2.60129911      -0.01678752      -1.14127476       0.92838594       0.43271344
Si       3.85255633       3.88973381       1.33905810       1.56295316      -0.15311179      -0.26452012
8
Lattice="5.542763275792159 0.0 0.0 0.0 5.542763275792159 0.0 0.0 0.0 5.542763275792159" Properties=species:S:1:pos:R:3:forces:R:3 config_type=bulk energy=-42.884532031214185 virial="-3.0179837464562005 -0.5286336420901273 0.6375896942114135 -0.5286336420901273 -2.7981628645947563 -1.1662080610252474 0.6375896942114135 -1.1662080610252474 -3.157255729468998" label_model=mpa-0 structure_key=095397ebc05782a6a48a50a5fafa491a60fc7014cb5635da6c2d6307989e3d3c pbc="T T T"
Si       0.04638273       0.03911750       0.02947057      -0.51027576      -0.77363998      -0.02250451
Si       1.48066024       1.32663422       1.30964331      -0.97466146       0.62975631       0.98078019
Si       0.04845603       2.82037330       2.75315872      -0.17427820      -1.01344203       0.35256682
Si       1.40870062       4.19491392       4.13448400      -0.46376655      -0.14370496       0.18629597
Si       2.73383344       0.00215154       2.76194690       0.90491950       0.20967961       0.50252101
Si       4.13730033       1.37637497       4.28709250       0.23929923       0.34741223      -1.28153148
Si       2.68014320       2.75140585      -0.00944110       1.12294086       0.81790197       0.13259493
Si       4.16104772       4.16422176       1.46552027      -0.14417762      -0.07396314      -0.85072293
8
Lattice="5.847411628137601 0.0 0.0 0.0 5.847411628137601 0.0 0.0 0.0 5.847411628137601" Properties=species:S:1:pos:R:3:forces:R:3 config_type=bulk energy=-41.1995237096732 virial="-14.80749118233183 1.3408040876106344 0.36380318256030564 1.3408040876106344 -15.19404538256538 0.8095743316797956 0.36380318256030564 0.8095743316797956 -15.202049877712275" label_model=mpa-0 structure_key=74373e63a8f0f0ead4450c5a3481ebb63998cc7c16ca6ff9cf116aef44fbd744 pbc="T T T"
Si       0.00912551       0.06571010      -0.00114549      -0.15955605      -0.75682985      -0.23139402
Si       1.48198976       1.50986969       1.51710540       0.11118772      -0.64365647      -0.19267748
Si       0.06429912       2.87723800       2.96899305      -0.25537767       0.39071069      -0.48332967
Si       1.50720288       4.21931876       4.44370732       0.15360196       1.12653226       0.52283084
Si       2.90499141       0.01591530       2.97982622      -0.22456204      -0.87036770      -0.52064824
Si       4.37195566       1.49354046       4.19948467       0.35675223      -0.39389578       1.58976777
Si       3.05487167       2.82942366       0.11468497      -0.63852116       0.02992334      -0.92089624
Si       4.36971230       4.28568427       1.50014355       0.65647501       1.11758351       0.23634703
8
Lattice="5.398459720180655 0.0 0.0 0.0 5.398459720180655 0.0 0.0 0.0 5.398459720180655" Properties=species:S:1:pos:R:3:forces:R:3 config_type=bulk energy=-41.49435618833069 virial="5.706543523666957 -4.6248118534160785 -0.24955968810739795 -4.6248118534160785 6.321254063059141 2.4965843913564023 -0.24955968810739795 2.4965843913564023 4.584582781848153" label_model=mpa-0 structure_key=8ab4d390750ca056b5f419aed6305a0587b116d8fd3dc6957b0ee1e81506b2fb pbc="T T T"
Si       0.08361964       0.02600410      -0.18944801      -1.07468763       0.10579097       3.66912628
Si       1.17490037       1.29655982       1.63205761       2.99172810      -2.39184170      -3.21354164
Si      -0.13335081       2.62922778       2.58616227      -1.19082620       2.42563542       0.86862082
Si       1.13883060       4.01428185       3.96941959       1.70179157      -1.50875103      -0.82970350
Si       2.71076523      -0.15523382       2.77294691       0.47038402       0.70240225      -0.32236895
Si       4.17933322       1.40084089       4.07677487      -2.82337288      -0.47711183      -0.10192446
Si       2.54006785       2.66215789      -0.04195905      -1.54808860      -1.81602908      -0.66909514
Si       3.89239159       3.81745381       1.19362664       1.47307163       2.95990500       0.59888658
8
Lattice="5.210814698738059 0.0 0.0 0.0 5.210814698738059 0.0 0.0 0.0 5.210814698738059" Properties=species:S:1:pos:R:3:forces:R:3 config_type=bulk energy=-41.642734703615524 virial="16.917930244462788 -1.667329953642756 -2.3547080190401473 -1.667329953642756 17.008899767257486 1.4774786975259657 -2.3547080190401473 1.4774786975259657 16.213483870849995" label_model=mpa-0 structure_key=2308897b344b45c8fd7262b71b7c56bf0cbfd8fb9c009587e471131d638aeb1d pbc="T T T"
Si      -0.00251887      -0.04971735      -0.03161426      -0.82997139       1.10164470       1.29232383
Si       1.34477474       1.33979715       1.15401737      -0.97164440      -0.55541538       2.23908198
Si      -0.00742303       2.68117382       2.67687595       0.75867748      -1.42393649      -0.80493540
Si       1.28412015       3.98173145       3.95598384       1.52487228      -0.47169149      -1.49815202
Si       2.70042344      -0.00739110       2.57238516      -2.60905347       1.64100542       0.80785882
Si       3.90650751       1.28765752       3.93700628       0.22901248       0.49966608      -0.20169442
Si       2.60399313       2.64626389      -0.03277043       1.13753737       0.91949777       0.02678729
Si       3.91752591       3.96557552       1.38530121       0.76056964      -1.71077062      -1.86127008
8
Lattice="5.6065618941127315 0.0 0.0 0.0 5.6065618941127315 0.0 0.0 0.0 5.6065618941127315" Properties=species:S:1:pos:R:3:forces:R:3 config_type=bulk energy=-42.52634574294944 virial="-5.965191590254558 0.9111047426525934 -0.9743488601301424 0.9111047426525934 -5.6843931279921085 -2.2416493814043577 -0.9743488601301424 -2.2416493814043577 -5.598694365275006" label_model=mpa-0 structure_key=2c6d7e9dc287d1d4b49c9e7ad81238d0f6e993858a36b82498c591bc8278bbd9 pbc="T T T"
Si      -0.03522957       0.00902964      -0.03337449       0.63385391      -0.58396390      -0.14269719
Si       1.44660915       1.31424132       1.36533123      -0.82881936       0.37505016       0.19313777
Si      -0.05660184       2.71433146       2.77791442       1.33116400       0.62891460       0.11060291
Si       1.56042767       4.29456704       4.08841217      -2.12328404      -1.70982093       1.40794834
Si       2.80223159       0.06262621       2.86191706       1.28042588       0.04226253      -1.40265745
Si       4.16547229       1.44316006       4.23042109       0.48764060      -0.48129715      -0.11472776
Si       2.79463775       2.70905908      -0.01640261      -0.05007798       1.36413694       0.24650069
Si       4.25526312       4.14498745       1.42281853      -0.73090301       0.36471775      -0.29810731
8
Lattice="5.5352100102884245 0.0 0.0 0.0 5.5352100102884245 0.0 0.0 0.0 5.5352100102884245" Properties=species:S:1:pos:R:3:forces:R:3 config_type=bulk energy=-40.87591864305254 virial="-3.0993824523714646 3.631888075267592 0.49086891306636804 3.631888075267592 1.5441712655974453 -9.971114628879318 0.49086891306636804 -9.971114628879318 -1.6390750724030088" label_model=mpa-0 structure_key=ee12497deff39473774dec1c60790fed1defccd85b4b2b1203656b15a657e75f pbc="T T T"
Si      -0.19823402       0.07489346       0.05814783       3.28947675       1.19240215      -1.09612347
Si       1.54467245       1.43298566       1.39551478      -2.45392773      -0.16125686       0.63659450
Si      -0.25731318       2.78546444       2.90756028       3.90018252       2.53536329      -2.66083289
Si       1.44986571       4.03422686       4.37354202      -3.98902758       2.04303154      -1.94611478
Si       2.57626632      -0.10757814       2.87376179       1.45319859       0.24249378      -1.01734068
Si       4.22691632       1.30776242       3.93251035      -3.15126205      -2.00579985       2.60087566
Si       2.76080007       2.85067315      -0.00478370       2.86229776      -2.56008771       0.98419266
Si       4.17378657       4.23917107       1.27701850      -1.91093826      -1.28614634       2.49874902
8
Lattice="5.578277735911333 0.0 0.0 0.0 5.578277735911333 0.0 0.0 0.0 5.578277735911333" Properties=species:S:1:pos:R:3:forces:R:3 config_type=bulk energy=-43.00227847987753 virial="-4.9378649673303405 -0.12454894114813246 0.23430166228385516 -0.12454894114813246 -4.812637728862112 -0.9054149521905134 0.23430166228385516 -0.9054149521905134 -5.0153747654680325" label_model=mpa-0 structure_key=a6006088303c4d1ec03b15988ef2cbe8223d5265f2e83ec8bd000fabbaf2f3a7 pbc="T T T"
Si      -0.01636680      -0.00513048      -0.02709144       0.13859850       0.16440962       0.22250337
Si       1.34789294       1.37865700       1.44953545       0.34721797       0.25859707      -0.65676591
Si      -0.03319029       2.83129299       2.74897346       0.53530134      -0.17095289       0.29202978
Si       1.40234343       4.20370602       4.16049032      -0.33014554      -0.27811265       0.38803576
Si       2.74591136       0.00369764       2.85452184       0.48103091       0.30449133      -0.49753853
Si       4.24334016       1.42068017       4.11715295      -0.69876975       0.07259469       0.69088273
Si       2.79198354       2.85436081       0.00275973       0.09659439      -0.64220068       0.13647138
Si       4.20087011       4.21088297       1.44968434      -0.56982783       0.29117350      -0.57561857
8
Lattice="5.563879084013161 0.0 0.0 0.0 5.563879084013161 0.0 0.0 0.0 5.563879084013161" Properties=species:S:1:pos:R:3:forces:R:3 config_type=bulk energy=-41.28410753333304 virial="-1.7481480089233856 -5.457558682254234 0.2058135909803622 -5.457558682254234 -3.7637383756869354 -3.4194031122247686 0.2058135909803622 -3.4194031122247686 -3.0042621489729324" label_model=mpa-0 structure_key=de54191518b4a715f1c9901dbf255d03c3ad58de1835d7386cf8f1657c9e8919 pbc="T T T"
Si       0.03306676      -0.11815258      -0.11437785       0.50718452      -0.32439926       1.74308665
Si       1.55220295       1.48115533       1.51362009      -2.06218833      -1.62441427      -1.09054853
Si      -0.18424965       2.48990327       2.57226748       0.58898135       0.78707698       2.27716710
Si       1.32115022       3.91106924       4.18864899      -0.11981841       1.04441702      -1.97231761
Si       2.87699593       0.14626060       2.67660732       0.64481709      -2.77141813       1.86790366
Si       4.17488305       1.35899990       4.36561544       0.17259310      -0.64440855      -1.72879173
Si       2.69037553       2.62122935       0.00980631       0.48662223       1.25505897      -0.66986669
Si       4.13820088       3.92851557       1.31388269      -0.21819155       2.27808724      -0.42663285
8
Lattice="5.401112906064962 0.0 0.0 0.0 5.401112906064962 0.0 0.0 0.0 5.401112906064962" Properties=species:S:1:pos:R:3:forces:R:3 config_type=bulk energy=-40.97134297870113 virial="6.087846816799548 3.9504859420546903 5.36724325073379 3.9504859420546903 5.4746104999394865 4.264140731008153 5.36724325073379 4.264140731008153 7.657481537621499" label_model=mpa-0 structure_key=f1b4b3da9ce3afb7abfbc03ad4df049041ce3ce1893eb7c790d4bceac63342ed pbc="T T T"
Si      -0.04843585      -0.03695567      -0.15251560      -2.26502363      -1.72264985       1.42272535
Si       1.29318685       1.01613800       1.11755205       2.88565132       3.01397416       1.90417235
Si       0.04809587       2.56620703       2.47871406       0.74127644       0.73571893      -0.38705256
Si       1.18948085       4.09493505       4.02383505       2.17565607      -2.77227194      -1.03852117
Si       2.68753236      -0.05528802       2.76814083      -0.63197142      -0.60776562      -1.41364448
Si       4.28244372       1.16482195       3.80130416      -2.07211027       2.31319914       0.62334531
Si       2.85322290       2.73932739       0.00280047      -3.52491006      -3.98066766      -3.98216007
Si       3.92692816       3.92702777       1.26295093       2.69143155       3.02046283       2.87113526
16
Lattice="11.299676617122273 0.0 0.0 0.0 5.649838308561137 0.0 0.0 0.0 5.649838308561137" Properties=species:S:1:pos:R:3:forces:R:3 config_type=bulk energy=-85.7390770245534 virial="-16.22242125380077 -0.31707817549498907 0.5522981899284342 -0.31707817549498907 -16.164599046472123 0.7713357886971022 0.5522981899284342 0.7713357886971022 -16.19261138479379" label_model=mpa-0 structure_key=73cd28853fbbdf7b0cdaa35314e67db827861392a9dea673d5fc69c1bebf0ed8 pbc="T T T"
Si       0.02240676      -0.00663797      -0.01797500      -0.36156783      -0.21605279       0.13251892
Si       1.39984133       1.39007671       1.37070494       0.19130212       0.23728889       0.20834341
Si       0.02115602       2.78957267       2.84406649      -0.26041954       0.08771127      -0.15945240
Si       1.39641383       4.23274723       4.23423144       0.39187694       0.05079526      -0.12067339
Si       2.83905353       0.03173124       2.78557056      -0.20196106      -0.31175363       0.16092834
Si       4.22972584       1.42380857       4.21526577       0.24197369       0.12206788      -0.00668878
Si       2.84306608       2.82805785       0.00877462      -0.22648992      -0.04149766      -0.21050694
Si       4.23215983       4.23194004       1.39629199       0.26184482       0.21759571       0.04879358
Si       5.66996999       0.02466170      -0.01824168      -0.24458466      -0.08761804       0.09130681
Si       7.07077731       1.43907876       1.39776739      -0.09861426      -0.03777370       0.02387079
Si       5.68914856       2.86648097       2.81810681      -0.28642585      -0.17712013       0.05982630
Si       7.07592941       4.25983649       4.25279551       0.03802558       0.17826747      -0.36878359
Si       8.50131000       0.03210295       2.77614960      -0.21234192      -0.22510402       0.33847764
Si       9.88172296       1.37454292       4.24608497       0.04867070       0.31051301      -0.08289846
Si       8.43122687       2.83087640      -0.02158522       0.44533175      -0.03902334       0.11086270
Si       9.86987621       4.22499732       1.42679688       0.27337945      -0.06829617      -0.22592494
16
Lattice="11.135451785770991 0.0 0.0 0.0 5.567725892885496 0.0 0.0 0.0 5.567725892885496" Properties=species:S:1:pos:R:3:forces:R:3 config_type=bulk energy=-85.46865216431966 virial="-8.244899807625814 -0.21782410169006763 5.082249566593586 -0.21782410169006763 -8.597910099624512 0.3711975952961142 5.082249566593586 0.3711975952961142 -8.297764535275517" label_model=mpa-0 structure_key=02e79930f628c366d2abec1ed2aa15be97ee4b4da9fc99d2e2e24afa6b98d443 pbc="T T T"
Si      -0.05022150       0.05807791       0.00797750       0.26874828      -1.24661200      -0.34480958
Si       1.45943574       1.35576160       1.24241258      -0.56829331       0.56973471       1.24980082
Si       0.06712821       2.78280134       2.88818160      -0.55541910      -1.08153645      -1.45461403
Si       1.45027137       4.07061904       4.17431951      -0.85768370       2.02062609       0.01676062
Si       2.76618045      -0.01475029       2.75075116       0.10230052      -0.64889213      -0.35534182
Si       4.12476189       1.34142968       4.11429555       0.68963531       0.51599496       0.42288181
Si       2.76486510       2.84675227      -0.04959682       0.98539164      -1.28460097       0.25278792
Si       4.18874816       4.05523929       1.38387600      -0.18437359       1.65608932      -0.66958951
Si       5.68112687       0.01235735       0.00235489      -1.13440185      -0.24181530       0.07836042
Si       6.99506897       1.34322768       1.48784191       0.17867206       0.82393880      -1.28189019
Si       5.54115660       2.79465965       2.68130565       0.45443748      -0.86523891       1.36290799
Si       6.94910151       4.16660872       4.15969610       0.17243368      -0.36274080      -0.00426997
Si       8.31221704      -0.06947035       2.74818213       0.32243773      -0.21875131       0.29290567
Si       9.69230812       1.30595491       4.12184308       0.50456091       0.42860552       0.02880530
Si       8.47885007       2.79913665      -0.04835405      -1.33983020      -0.78298012       0.12225429
Si       9.71872132       4.09255241       1.40479580       0.96138415       0.71817858       0.28305027
16
Lattice="11.208615092713181 0.0 0.0 0.0 5.604307546356591 0.0 0.0 0.0 5.604307546356591" Properties=species:S:1:pos:R:3:forces:R:3 config_type=bulk energy=-84.16444833618453 virial="-8.40502772337654 -0.8495435143322123 -1.9922172899610355 -0.8495435143322123 -10.592965892739876 1.5736892365687596 -1.9922172899610355 1.5736892365687596 -10.285815241981245" label_model=mpa-0 structure_key=a5fca6ca1b51b7e1ed178cba0af466350ace03dad488d48a764bf42d647d49d8 pbc="T T T"
Si      -0.01691977      -0.06207092      -0.04762569       0.49289983       2.69155257      -0.65134367
Si       1.39404099       1.36345029       1.52573790       0.28185329      -0.20362183      -1.66175926
Si       0.01985036       2.79097347       2.69173578      -0.86692680       1.50423406       1.14111749
Si       1.46006690       4.27267399       4.33872969       0.00130205      -1.05673819      -1.98003289
Si       2.88110319      -0.10180456       2.65080629      -0.80716142       1.19129289       2.00200618
Si       4.13806455       1.42385862       4.27169454       0.43206356      -0.26552721      -0.89736403
Si       2.81274599       2.84934508       0.05751446      -0.56425247      -0.80500753       0.24669183
Si       4.20979582       4.27101029       1.28538141       0.72966247      -1.03779043       0.44201771
Si       5.61940779      -0.07612853      -0.06747172       0.26070545       1.30289841       0.25586483
Si       7.04217324       1.43349167       1.37914822      -0.86368144       0.54484228      -0.18428501
Si       5.55579043       2.92307605       2.86803438      -0.05902765      -0.87377243      -0.98676294
Si       7.01462067       4.25560984       4.12542809      -0.33662619       0.67903323      -0.51240905
Si       8.42666991       0.19239980       2.86203513      -1.55510545      -1.92948851      -1.87040937
Si       9.65740915       1.46790160       4.07078287       2.68781278       1.42332987       1.92900774
Si       8.29742396       2.91455179      -0.17571674       1.15511963      -0.28962410       1.70564690
Si       9.77913314       4.53779157       1.30943321      -0.98863762      -2.87561306       1.02201351
16
Lattice="10.239967785101697 0.0 0.0 0.0 5.119983892550849 0.0 0.0 0.0 5.119983892550849" Properties=species:S:1:pos:R:3:forces:R:3 config_type=bulk energy=-74.81350401316003 virial="57.37766390738502 24.190763264621637 -24.17813343715849 24.190763264621637 52.13673874133928 -7.733354643356506 -24.17813343715849 -7.733354643356506 54.88670430375062" label_model=mpa-0 structure_key=086f6f48b9471cd4f1df3d44af6ee73b1f8e024d4f2c03acc9d1438a9655ef1e pbc="T T T"
Si      -0.10094612      -0.00676844       0.04910381       2.86549807       0.22458587      -1.69198035
Si       1.14143144       1.39996143       1.38334592       2.70617477      -2.80635974      -2.19630471
Si       0.00456580       2.46813972       2.71231184      -1.25917781       3.29460668      -0.47286897
Si       1.48439619       3.69721830       3.72645274      -1.33462028       1.73565235       1.50213871
Si       2.70900963       0.03021472       2.61075175      -2.10976158       0.21790593      -1.96340257
Si       3.88444941       1.24380600       3.88127986       1.60610770       1.18812637       1.37495557
Si       2.63199842       2.56147411       0.09693874      -1.83875130      -2.68608111      -1.04766778
Si       3.77803532       3.91548939       1.12349952       1.97104630       0.17032741       3.05680660
Si       5.22693338      -0.02460780       0.11062879       0.15520424       1.00154151      -0.64094953
Si       6.47555258       1.41838853       1.22828405      -1.08943328      -2.67935680       3.23504185
Si       5.21931624       2.59888255       2.61889056      -2.77058867      -0.91332169      -1.48902284
Si       6.34098256       4.06504287       3.64042397     -12.05276972     -10.81912394      13.50037511
Si       7.42744026      -0.19277886       2.71261175      15.89964540      12.86863294     -13.07138521
Si       8.95390076       1.35078184       3.88351359      -1.60527687      -3.31337453      -0.36859110
Si       7.55659983       2.47530835      -0.12101340       1.28631196       4.65803975      -0.91957347
Si       9.01515534       3.87622838       1.33414349      -2.42960893      -2.14180100       1.19242870
16
Lattice="10.478486445525231 0.0 0.0 0.0 5.239243222762616 0.0 0.0 0.0 5.239243222762616" Properties=species:S:1:pos:R:3:forces:R:3 config_type=bulk energy=-84.74045312451209 virial="27.52165726593219 -0.11603787408463594 -1.7454350767773061 -0.11603787408463594 27.37980772393329 0.35564714248195023 -1.7454350767773061 0.35564714248195023 27.392361255858834" label_model=mpa-0 structure_key=d56bab0b0fd5a889a7cf4eca869fdef87c3868050fcf03fae6ad3a6f62baa5c4 pbc="T T T"
Si      -0.00825867      -0.01979870       0.04157710       0.67993188       0.69666241      -0.80239401
Si       1.27508343       1.34140577       1.34126253       0.74936294      -0.81173961      -0.20442944
Si       0.00925289       2.66209213       2.57305846      -0.53563531       0.15138351       0.98151649
Si       1.33325223       3.96113889       3.92499385      -0.48101801      -0.53516800       0.39633941
Si       2.64638803      -0.02388540       2.64815985      -0.51928973       0.85099504      -0.51269515
Si       3.92456310       1.31958010       3.90371092      -0.04788827       0.07371734       0.67608397
Si       2.61106616       2.62815705       0.02971275      -0.14254522      -0.37925335      -0.49189201
Si       3.88886860       3.95396960       1.29955363       0.83281777      -0.19136060      -0.00986476
Si       5.24669568      -0.02416089      -0.04247401      -0.48587207       0.45225617       0.40649526
Si       6.51616298       1.29561184       1.31353265       0.20075311       0.08447899      -0.16693326
Si       5.22171765       2.61321863       2.61873265       0.25176274       0.67813220      -0.04825315
Si       6.57929758       3.92153546       3.97902063      -0.45771381       0.01531479      -1.31831756
Si       7.86018820      -0.00294144       2.61538041      -0.40719471       0.20910289       0.31752221
Si       9.18465982       1.28474021       3.92172977      -0.06456802       0.81395121       0.22136526
Si       7.83367031       2.66904733       0.02500563       0.89996850      -1.17447116       0.31972484
Si       9.17159550       3.99710620       1.30548895      -0.47287179      -0.93400183       0.23573190
16
Lattice="11.035951607344625 0.0 0.0 0.0 5.5179758036723126 0.0 0.0 0.0 5.5179758036723126" Properties=species:S:1:pos:R:3:forces:R:3 config_type=bulk energy=-84.76000879439061 virial="-3.1377173790934294 0.33964929229991714 -0.6915781535899144 0.33964929229991714 -2.9079203377147858 1.235827456003859 -0.6915781535899144 1.235827456003859 -2.691592725612881" label_model=mpa-0 structure_key=ad82cf7c9eacaff47cb7250ae567f096f12930d450986135d1c48033884ccd35 pbc="T T T"
Si      -0.06375743      -0.00012917      -0.16854874       1.07411025      -0.19485775       1.28654523
Si       1.32487840       1.31986642       1.32217444       0.86135273       0.35122500      -0.05191192
Si      -0.00053038       2.66427864       2.76153366       0.45529759       0.96242652      -0.52267311
Si       1.31795806       4.13022087       4.13169152       1.41057949      -0.74963616       0.13931877
Si       2.71508500       0.14825023       2.90245229      -0.16008705      -1.82383000      -1.63859079
Si       4.19863386       1.32768743       4.15369178       0.36313226       0.62362299       0.29246151
Si       3.00156731       2.72730890       0.08546378      -2.95942324      -0.79396373      -1.37146536
Si       4.24255230       4.04652004       1.29440067      -0.12126603       1.62629153       2.53253849
Si       5.52032632      -0.06990384       0.00702752      -0.38836226       0.64935837       0.20557918
Si       6.94946557       1.17160892       1.34810234       0.09034952       1.19212372       0.76145628
Si       5.54374764       2.70008712       2.75439889       0.73524756       0.05168458      -0.11923993
Si       6.85590893       4.22027917       4.23086802       1.27322878      -1.55716701      -1.40560611
Si       8.41975402       0.03874643       2.86255092      -0.63282908      -0.40166934      -0.18804549
Si       9.71400158       1.45732988       4.22391272      -0.79248173       0.24711589      -0.90619592
Si       8.25117392       2.67287504      -0.00179453       0.17504774       1.40472004       0.96286186
Si       9.83423882       4.28643014       1.41714670      -1.38389652      -1.58744464       0.02296733
16
Lattice="10.843404100011142 0.0 0.0 0.0 5.421702050005571 0.0 0.0 0.0 5.421702050005571" Properties=species:S:1:pos:R:3:forces:R:3 config_type=bulk energy=-85.05919987477 virial="8.687032231872406 2.8311417129435323 -1.1570140508725821 2.8311417129435323 6.6976881727560045 -4.8049831284404965 -1.1570140508725821 -4.8049831284404965 6.017630380546449" label_model=mpa-0 structure_key=db75dda4de6f95a7c40bc78f4617c50ff0fad465f30e1c58eff44ed90135c777 pbc="T T T"
Si      -0.03600573       0.08960801      -0.01357233       1.56645245      -1.43165749       0.09286242
Si       1.35593761       1.40789115       1.26139905      -1.49874902      -1.05870839       2.53554870
Si      -0.00206454       2.78418769       2.81244454      -0.21361515      -0.72932438      -0.75072620
Si       1.47903050       4.04891308       4.09029395      -1.11951425       1.05380466      -0.24435512
Si       2.73077226       0.01194905       2.65233706       0.52210268       0.07949398      -0.23556483
Si       4.05919617       1.46066506       4.09959311      -1.13758307      -1.71949556       1.02375705
Si       2.60311837       2.70471985       0.09742038       1.14244702       0.13658748      -2.02017895
Si       4.04784354       4.00760501       1.12394848       0.35379777       0.36475768       2.47236266
Si       5.44027096      -0.10204934      -0.05816757       0.37627853       1.73957152       0.00470931
Si       6.77633265       1.29963734       1.51816725      -0.69865382       0.69009379      -2.32365661
Si       5.29357878       2.58547494       2.68910379       0.99013858       2.24926553      -0.81550628
Si       6.77254882       4.13038663       3.93013372      -0.25455651      -1.43545865       0.12383715
Si       8.14880652       0.02076162       2.66519082       1.19900579      -0.49131864       0.66735630
Si       9.45350744       1.29229042       4.17680330      -0.65282811       1.45268688      -1.54966033
Si       8.10987267       2.76933585      -0.00617500      -0.67462397      -0.43390318       0.25365866
Si       9.51016214       4.12556172       1.28349659       0.09990109      -0.46639521       0.76555606
16
Lattice="11.005446329686837 0.0 0.0 0.0 5.5027231648434185 0.0 0.0 0.0 5.5027231648434185" Properties=species:S:1:pos:R:3:forces:R:3 config_type=bulk energy=-83.71530960961307 virial="0.6279328888403919 3.520756122475203 2.8900916598944786 3.520756122475203 0.11100070627216851 1.938644744914722 2.8900916598944786 1.938644744914722 1.762159264036433" label_model=mpa-0 structure_key=8b6e16832861e137df9a18551279bdf3f15d426d8c1cc9fc4b07f108462a3141 pbc="T T T"
Si       0.13622036       0.05359472      -0.01634752      -1.03733981      -0.88704596      -0.53306063
Si       1.48624702       1.48615113       1.32464814      -0.66798981       0.11805194       0.52017578
Si      -0.20834192       2.84924945       2.76542778       0.15075048      -2.04964254      -1.64228496
Si       1.21789188       3.91980108       3.97756697       2.73507171       2.38932947       2.18092362
Si       2.69044845       0.03391321       2.76427675       0.03415209      -0.29872059       0.44578036
Si       4.18791981       1.43699498       4.22614108      -0.70242501      -2.71624760      -0.44911519
Si       2.99116750       2.77799782      -0.03437920      -3.02192049       0.68258518      -0.00570325
Si       4.06442328       4.13743803       1.38718895       1.67879021       0.32871726       1.05137867
Si       5.53691041      -0.04381031      -0.07427787      -0.65048357       0.36447915       1.65665928
Si       7.00497019       1.23457429       1.38763933      -2.83782996       0.84212953      -0.93270589
Si       5.53067206       2.48540833       2.87281207       0.97283806       2.48001692      -2.24817401
Si       6.79916674       4.11097926       4.16020874       1.40637254      -1.21095453      -0.62702467
Si       8.19987846       0.12854244       2.77327240       1.37826084      -3.24455522       1.10558166
Si       9.57324325       1.41550718       4.10932576       0.54485203      -0.38448013       1.04755566
Si       8.27009078       2.64607046       0.19092226      -1.13016524       0.18036494      -2.80371170
Si       9.54886408       4.01485715       1.27311825       1.14706593       3.40597218       1.23372527
16
Lattice="11.409555872531477 0.0 0.0 0.0 5.704777936265739 0.0 0.0 0.0 5.704777936265739" Properties=species:S:1:pos:R:3:forces:R:3 config_type=bulk energy=-84.90302452780578 virial="-20.36454813012141 0.5586739002837491 -0.9239546874595616 0.5586739002837491 -20.468927896370154 -0.396771136503911 -0.9239546874595616 -0.396771136503911 -20.585525920739773" label_model=mpa-0 structure_key=705e1f49cb62e22fc90d91d1acc72b2a19c9081c61c187791302ed52427aa122 pbc="T T T"
Si       0.01384296      -0.03684772      -0.02757577       0.08121548       0.45833542       0.16955905
Si       1.51895063       1.43553976       1.38123153      -1.12799263      -0.43600857       0.64923609
Si      -0.04145689       2.87122789       2.85459650       0.57157263      -0.47542337      -0.13858934
Si       1.41278428       4.28394302       4.30127419       0.04432875      -0.46196781       0.00575776
Si       2.83956694      -0.05335225       2.85709397       0.01033610       0.37212401      -0.08904228
Si       4.24959634       1.42537489       4.20822862       0.02611835      -0.40098098       0.81857614
Si       2.84115314       2.82731900       0.07408619       0.52592754       0.44837251      -0.90623927
Si       4.27554477       4.27476040       1.47196000       0.26031065      -0.19140203      -0.24880054
Si       5.74425644      -0.04232823      -0.03495960      -0.58682424       0.65904044       0.47744539
Si       7.12954164       1.48416939       1.44834256       0.04704344      -0.71210786      -0.09367523
Si       5.68770371       2.80418610       2.89714756       0.05671338       0.48251979      -0.23413128
Si       7.09888255       4.24022909       4.34713273       0.32969609       0.04046385      -0.72324111
Si       8.59110796      -0.04179922       2.84574909      -0.68705013      -0.05473143      -0.14304168
Si       9.97150805       1.31629631       4.19594319       0.04951242       0.87343167       0.78090975
Si       8.51078508       2.86951632       0.00871353       0.70787711      -0.39416760      -0.05170450
Si      10.01761618       4.29251159       1.43197647      -0.30878492      -0.20749807      -0.27301895
16
Lattice="11.01135465500391 0.0 0.0 0.0 5.505677327501955 0.0 0.0 0.0 5.505677327501955" Properties=species:S:1:pos:R:3:forces:R:3 config_type=bulk energy=-86.56398021562015 virial="-3.5440266484349 0.1829879033417867 -0.26053850572701137 0.1829879033417867 -3.580254386039622 0.3715236895347302 -0.26053850572701137 0.3715236895347302 -3.559292950327029" label_model=mpa-0 structure_key=3d48fac70221fc0b9eddcc87c8e588294cb5c01ec499604f60cdc2d156246bdf pbc="T T T"
Si      -0.00712069      -0.00756753       0.00357032      -0.04286694       0.05241781      -0.03326175
Si       1.36629325       1.35706674       1.37215029       0.12377228       0.21641840       0.06552705
Si      -0.00829159       2.75988014       2.75524940       0.06734211      -0.07378143      -0.10416985
Si       1.36221530       4.13536421       4.12698288       0.05599347      -0.12884008       0.08281996
Si       2.74995620      -0.00890943       2.77448066      -0.15604293       0.21816834      -0.02549696
Si       4.11848654       1.37188785       4.14981339       0.10435736       0.08268212      -0.13734448
Si       2.76177171       2.76607620      -0.00457624      -0.18755825      -0.02829527       0.16551236
Si       4.10451330       4.16528504       1.39850451       0.29829775      -0.29027052      -0.13952199
Si       5.51087150       0.01686772       0.00212032      -0.05102042      -0.22247666       0.02029213
Si       6.89624236       1.36857630       1.35844517      -0.08300540       0.05141108       0.26593042
Si       5.50186644       2.74589454       2.76304019      -0.04499412       0.01655143      -0.18380702
Si       6.88364100       4.11967534       4.12332347      -0.05613415      -0.01294418       0.16691547
Si       8.26046877      -0.00914827       2.77161069      -0.08601906       0.11866236      -0.13011260
Si       9.63722347       1.37898852       4.12177293       0.04831572      -0.07230377       0.07253235
Si       8.26757919       2.72966123      -0.00536653      -0.00645073       0.26728639       0.05515941
Si       9.62417429       4.14424674       1.39214643       0.01601331      -0.19468602      -0.14097450
16
Lattice="10.786545565407108 0.0 0.0 0.0 5.393272782703554 0.0 0.0 0.0 5.393272782703554" Properties=species:S:1:pos:R:3:forces:R:3 config_type=bulk energy=-85.52127389845589 virial="8.467931410887992 -0.9576038128073913 -0.5694097240544416 -0.9576038128073913 9.48491682443625 4.313055302945021 -0.5694097240544416 4.313055302945021 9.954106869152524" label_model=mpa-0 structure_key=2ade82e58f35f97b392d5f68937940c21f3700908c8760670a72c558f1df583c pbc="T T T"
Si       0.12798067       0.00832657      -0.04096598      -1.15870409       0.60062066       0.56078969
Si       1.37453053       1.35928451       1.37163167       0.44433856      -0.27947369      -0.03063091
Si       0.08304035       2.70916701       2.73694140      -2.16237237      -1.50087836      -2.24233079
Si       1.16157047       3.91194403       4.06076290       3.84317281       1.89496440       1.25139908
Si       2.73813411       0.01086296       2.70486367      -1.07016434      -0.01637048       1.29417870
Si       4.06298982       1.46989891       4.06908991      -0.44754320      -1.26059405      -0.24322585
Si       2.73948733       2.68038497       0.04219568      -0.59461645       1.17252169       0.30336263
Si       4.08344258       4.09202648       1.47128239       0.08202657      -0.10516194      -1.57340937
Si       5.39198733       0.08690543      -0.02668790      -0.08681031      -0.86959709       0.13168835
Si       6.73444409       1.38263086       1.30780069       0.41054339      -0.26401136       0.34630336
Si       5.37469045       2.65062782       2.67808886       0.82622288       0.63767807       0.11886882
Si       6.74254794       4.04183480       4.03222844      -0.07989647       0.16224552      -0.10959889
Si       8.11860013       0.00278197       2.65358838      -0.00833812       0.30628579       0.39079330
Si       9.48990748       1.39445289       4.06513983      -0.31049012      -0.54726404      -0.18929254
Si       8.10799259       2.71847423       0.01438199       0.28422558       0.32061173      -0.03689516
Si       9.51752630       4.09152700       1.33326926       0.02840568      -0.25157685       0.02799960
16
Lattice="10.780858297431235 0.0 0.0 0.0 5.390429148715618 0.0 0.0 0.0 5.390429148715618" Properties=species:S:1:pos:R:3:forces:R:3 config_type=bulk energy=-84.03404406390226 virial="11.063325057415383 -6.131231338656382 4.035679167381246 -6.131231338656382 11.55577491748411 1.9272562499529309 4.035679167381246 1.9272562499529309 11.146451481295248" label_model=mpa-0 structure_key=02ae78fe524b22b2bb06c6382826d29fbaabba21670a41f2e90d2f7e0a4ed1f7 pbc="T T T"
Si      -0.01510657      -0.14805657      -0.04172251       0.07700620      -0.00578229       1.41328168
Si       1.22167787       1.35797206       1.46389963       2.35010270      -2.40029839      -2.69154624
Si       0.10202605       2.62218900       2.72581878      -3.22182154       1.09383260       0.14202815
Si       1.32610805       3.87890425       3.99131235      -0.36584367       2.45111578       0.22540738
Si       2.67672563      -0.09197086       2.81574538       0.03946578       0.58488500      -1.31389563
Si       4.02281308       1.25025510       4.20179438       0.17690230       0.48957804      -1.47307044
Si       2.58893597       2.66760658      -0.15756900       0.35216573      -1.90484971       2.55795614
Si       3.89413173       3.81202288       1.33600072       0.45982761       1.70684844       0.19538709
Si       5.34495082      -0.10183673       0.01771832       0.36034545      -0.44014907       1.29103899
Si       6.81020186       1.29217310       1.26296254      -2.07902156       2.18027296      -0.39474051
Si       5.29689648       2.87030826       2.89053026       0.51528380      -2.49284798      -1.09080766
Si       6.80820714       4.07468011       4.08898253       0.13852740       0.23433894      -0.09288917
Si       7.97721575      -0.01369061       2.53493140       1.48592925       0.02175935       2.60732493
Si       9.55420843       1.32066598       4.09364704      -0.83925286      -0.88814926      -1.40657478
Si       8.24949619       2.69989272      -0.06023955      -1.53218314      -0.75545062      -0.04392398
Si       9.31090049       3.95494480       1.42791680       2.08256655       0.12489620       0.07502405
16
Lattice="11.33284981890855 0.0 0.0 0.0 5.666424909454275 0.0 0.0 0.0 5.666424909454275" Properties=species:S:1:pos:R:3:forces:R:3 config_type=bulk energy=-85.36949495218457 virial="-17.4507191779499 -0.39794210359824217 0.1666047332999681 -0.39794210359824217 -17.404400421170813 -0.2064556140671158 0.1666047332999681 -0.2064556140671158 -17.492747153170626" label_model=mpa-0 structure_key=ffe5f36424be56067f2dfb79524832917533dcba6699a6275d6df7cc507ff115 pbc="T T T"
Si      -0.00591172      -0.07813819      -0.06020197       0.07538323       0.71911641       0.49041515
Si       1.49078097       1.42129983       1.38153150      -0.94307349       0.00186729       0.05952667
Si      -0.03124131       2.84935209       2.84155313       0.67130717      -0.07749626      -0.16954009
Si       1.47810545       4.31891857       4.26492753      -0.38700878      -0.69427031      -0.46094416
Si       2.85515933       0.03382227       2.80518219      -0.06195376      -0.16139542       0.18322805
Si       4.16104580       1.41442811       4.31337027       0.89947504       0.13979311      -0.66498827
Si       2.85326776       2.84340764      -0.01396677      -0.29844701       0.26822739       0.13421681
Si       4.23044835       4.24679747       1.39929507       0.18460645       0.04117838       0.09064149
Si       5.63161397       0.02268643       0.04051954       0.15692031      -0.23686222      -0.31815026
Si       7.08379927       1.34509132       1.47669136      -0.15449727       0.63394804      -0.48361335
Si       5.64725715       2.84289944       2.78777718      -0.07067155      -0.28709172       0.61944622
Si       7.07906629       4.25747267       4.23717107      -0.20542968      -0.19867687       0.34782992
Si       8.45844389      -0.02803352       2.83270280       0.36612417      -0.09406501       0.00662174
Si       9.91572612       1.37965452       4.18304508      -0.04930202       0.10211893       0.50900653
Si       8.53048332       2.81678459       0.03762279      -0.43363628      -0.37739999      -0.43333284
Si       9.88494138       4.21688800       1.40823285       0.25020348       0.22100824       0.08963639
16
Lattice="10.965565077191203 0.0 0.0 0.0 5.482782538595601 0.0 0.0 0.0 5.482782538595601" Properties=species:S:1:pos:R:3:forces:R:3 config_type=bulk energy=-86.23142249008397 virial="-0.6081194419180059 -0.013013301069439754 0.31273487974280395 -0.013013301069439754 -0.9250121785324327 -0.16866563436932677 0.31273487974280395 -0.16866563436932677 -0.5449715480569136" label_model=mpa-0 structure_key=c48e8dc0418219616fe1cabcba53561be8f8d0f1ac2d9c955c1792f2c788ae2f pbc="T T T"
Si       0.00399573      -0.03627066      -0.00078002       0.44750842       0.44487051      -0.19166135
Si       1.42145338       1.42033095       1.32224654      -0.74069894      -1.21316276       0.70165204
Si      -0.02849617       2.64680993       2.71858078       0.47580809       1.04229021      -0.02622015
Si       1.42324252       4.09026112       4.12293905      -0.57261741       0.09773083      -0.59059927
Si       2.81385345       0.00590995       2.71450070      -0.38133365       0.01805124       0.10841569
Si       4.14649698       1.40074479       4.09955019      -0.14460445       0.00683764       0.12479889
Si       2.69498358       2.72245244       0.02268607       1.04380728       0.39992700      -0.69311089
Si       4.11359528       4.07828784       1.34368304       0.37017015       0.24183695       0.07540290
Si       5.50699466       0.05552599       0.01168925      -0.30597960      -0.60664919      -0.19812113
Si       6.84158946       1.33941909       1.41272282       0.46657041       0.80712442      -0.55602731
Si       5.54974633       2.76706503       2.75555627      -0.63494109      -0.22950472      -0.20778191
Si       6.84679490       4.06791737       4.14640825       0.31330557       0.99478980      -0.29063253
Si       8.22388515      -0.00096498       2.67561915       0.01567529      -0.23379223       0.99612517
Si       9.60876095       1.36921420       4.11643605      -0.36234808      -0.32788897       0.03697589
Si       8.27101635       2.82337318      -0.00573313      -0.45352147      -1.14810117       0.13295139
Si       9.58794898       4.14115750       1.33491970       0.46319948      -0.29435954       0.57783258
16
Lattice="10.565616089389293 0.0 0.0 0.0 5.282808044694646 0.0 0.0 0.0 5.282808044694646" Properties=species:S:1:pos:R:3:forces:R:3 config_type=bulk energy=-85.51017909856758 virial="20.863288077098417 0.8363573554369866 -0.8537622575082751 0.8363573554369866 20.92533260681553 0.16949830382190267 -0.8537622575082751 0.16949830382190267 20.963247252253343" label_model=mpa-0 structure_key=4753a730337366012c78f501302819912287c9c367aa325d0df119b86340f43e pbc="T T T"
Si       0.00343343       0.00981563       0.00557312      -0.20051012      -0.03195612       0.14741900
Si       1.34162320       1.32152922       1.31625569      -0.12595010      -0.22820089       0.28906095
Si       0.02221981       2.64091487       2.64386013      -0.48271701      -0.04478226      -0.24850864
Si       1.29157711       3.97355907       3.96016738       0.22038362      -0.21283392       0.32634261
Si       2.63169558      -0.03053786       2.66152401       0.23185409       0.24802766      -0.24581231
Si       3.94112703       1.34645697       3.96304514       0.01236136      -0.44900938       0.03194197
Si       2.63226717       2.63923966       0.01165551      -0.21480929       0.21820846      -0.39242792
Si       3.94707856       3.94663695       1.29678258       0.49602678       0.30459662       0.27679810
Si       5.29966052       0.03588131      -0.00406646      -0.03101495      -0.20502762       0.10010932
Si       6.62146301       1.35307845       1.35529076      -0.21366336      -0.25413601      -0.44584790
Si       5.27747580       2.61231074       2.64919743       0.02948835       0.81144057       0.12596598
Si       6.65324967       3.96779739       3.97231333      -0.83268486      -0.20999540       0.01882140
Si       7.89510448       0.00110552       2.63688015       0.59046987      -0.03873535      -0.08112991
Si       9.24190007       1.31029866       3.96062134       0.07694573       0.05194223      -0.16151490
Si       7.93603547       2.63483336       0.00794328      -0.10026670      -0.24876199      -0.23051414
Si       9.21365880       3.94982742       1.29664517       0.54408659       0.28922338       0.48929639
16
Lattice="10.431661475542198 0.0 0.0 0.0 5.215830737771099 0.0 0.0 0.0 5.215830737771099" Properties=species:S:1:pos:R:3:forces:R:3 config_type=bulk energy=-83.06214803837318 virial="32.87956132975538 3.054631417199496 5.171760567798963 3.054631417199496 32.95691256672878 4.304055227384862 5.171760567798963 4.304055227384862 33.77947405288773" label_model=mpa-0 structure_key=1e32fcc834a7fd8c0ccda5f531e82e733aa7159fba6ff29c9c32dc0f2807d01f pbc="T T T"
Si       0.10046120       0.04473716       0.05435107      -1.84682346      -0.39992505      -1.47751921
Si       1.39379428       1.34571399       1.20338815      -0.49025984       0.81507991       2.12002588
Si      -0.01947072       2.68976413       2.66346827       0.19020399      -1.42720532      -1.38547273
Si       1.31988785       3.89454781       3.90129455       0.48544769      -0.27927771       1.78487729
Si       2.54114877      -0.11419061       2.53910386       1.00502623       1.71923845       0.25544934
Si       3.96510317       1.34872504       3.88408779      -0.09076031      -1.86975565      -1.39595970
Si       2.78577864       2.56300068       0.00965797      -2.25683083       0.26828632      -1.65006136
Si       3.88551466       3.82660299       1.27800966       0.84251828       2.42342647       0.37491696
Si       5.21324091       0.01824695       0.02992736      -0.78266731      -1.13709402      -0.96010922
Si       6.52372702       1.20696269       1.26384528       0.67066083       2.53504308      -0.08404209
Si       5.19425300       2.64438371       2.52452907       1.89653672      -0.65612413       0.92231463
Si       6.57618262       3.91015619       3.94248400      -1.55794761       0.82296278      -1.23203663
Si       7.82690623       0.07470335       2.61452804      -0.28361970      -1.60568945      -0.31807003
Si       9.02320171       1.36666369       3.86868340       2.53881936      -0.81097488       0.71572759
Si       7.90693574       2.71136831      -0.07488035      -1.16220092      -1.49587221       1.70000423
Si       9.10746489       3.92340489       1.28897619       0.84189688       1.09788142       0.62995503
16
Lattice="11.044566330267736 0.0 0.0 0.0 5.522283165133868 0.0 0.0 0.0 5.522283165133868" Properties=species:S:1:pos:R:3:forces:R:3 config_type=bulk energy=-83.01971464537742 virial="0.08923774284187316 1.9198124570609345 0.9441973262782667 1.9198124570609345 2.0674033391349327 -6.969818596950742 0.9441973262782667 -6.969818596950742 0.28530461961796455" label_model=mpa-0 structure_key=cf2171de5fd42b5a2f20c687af5020f26cc909937cf4e9f3856d0959a498ce39 pbc="T T T"
Si      -0.17126942      -0.09677104       0.09399589       2.40847782       1.07328983      -1.32622280
Si       1.42913790       1.36710668       1.39755737      -1.41800182       0.85029697      -0.74694937
Si      -0.00962811       2.83980216       2.84913091      -1.10581589      -1.64965243      -1.90430564
Si       1.34334038       4.02038608       4.10420264       0.85432339       1.94746975       1.32389399
Si       2.67809356      -0.01060308       2.68194597       1.71539988      -0.79436574       1.47042988
Si       4.13611283       1.36585940       4.28077433       0.32092231      -0.41818329      -2.51332878
Si       2.81773078       2.73730137      -0.07903299      -0.29991813       1.17499198       1.76219308
Si       4.46129380       4.27206957       1.41419712      -5.84235047      -0.46923978       0.03070146
Si       5.47637308       0.04354493       0.15962318       1.42781980       0.43320565      -4.16534891
Si       6.95086989       1.18730222       1.25976009       0.59801002       2.35595272       1.96893381
Si       5.44878727       2.85918657       2.57867960       2.69007977      -3.55919633       3.07513430
Si       6.92098328       4.11412780       4.15363133      -0.84973355      -0.63507502       0.63434086
Si       8.18405417       0.10114660       2.94746164       0.47913949      -0.98305519      -1.51169525
Si       9.65579004       1.35754332       4.18768799       1.86156652      -0.64345694      -1.25120912
Si       8.36427037       2.52728196      -0.05315487      -1.71213284       2.60002090       1.35386750
Si       9.57169675       4.17135134       1.35622079      -1.12778632      -1.28300306       1.79956500
16
Lattice="10.767500112647951 0.0 0.0 0.0 5.383750056323976 0.0 0.0 0.0 5.383750056323976" Properties=species:S:1:pos:R:3:forces:R:3 config_type=bulk energy=-84.91092283384319 virial="12.014679428359473 2.2662136373095776 1.6810716502745962 2.2662136373095776 11.941904561804302 -0.13010697566585308 1.6810716502745962 -0.13010697566585308 13.099820332142286" label_model=mpa-0 structure_key=e82f3790f4fd39c0283a551d62dbf508dc86f8e970866a5102f6dd023c01c91f pbc="T T T"
Si      -0.05482445       0.00894079      -0.00392603       1.56456105      -1.25186448       1.05151651
Si       1.30749001       1.44017853       1.29379984      -0.80861143      -2.00922838       1.69835781
Si       0.00795088       2.71809268       2.71536853      -0.87985660       0.21379069      -0.57580893
Si       1.33743492       3.95092615       4.08007452       0.30467406       1.54999306      -0.16040080
Si       2.75216652       0.11425538       2.78727383      -2.51283341      -1.90924405      -1.76490906
Si       4.03143239       1.28159198       4.02265342       0.54711994       2.77250021       1.19877639
Si       2.60100640       2.66676985       0.09316001       2.13667217       0.78548922      -1.51693482
Si       3.98838994       4.06966663       1.37673156       0.03967883      -0.37176744       0.55741367
Si       5.23788593       0.11950783       0.08235101       1.97156757      -1.51830184      -0.25627283
Si       6.71186519       1.39937905       1.38171679       0.56531000      -0.59916272      -0.41116058
Si       5.43103896       2.67037440       2.71763125      -1.01214865       0.64772508       0.20588178
Si       6.79517818       4.00758042       4.00950763      -0.96970580       0.89513636       0.99070414
Si       8.11118018      -0.00640359       2.68941020      -1.04907092       1.89271895       1.53878348
Si       9.53630580       1.33307161       4.14363918      -1.85028676       1.23746904      -1.52424793
Si       8.10789795       2.75635927       0.06971803      -0.15652281      -0.82575911      -0.56096992
Si       9.30452403       4.16783370       1.37628700       2.10945277      -1.50949460      -0.47072892
16
Lattice="11.022685057280432 0.0 0.0 0.0 5.511342528640216 0.0 0.0 0.0 5.511342528640216" Properties=species:S:1:pos:R:3:forces:R:3 config_type=bulk energy=-86.22157489193114 virial="-3.356137298916538 -0.13760013841434376 1.670399917242344 -0.13760013841434376 -3.536232646653711 0.852441103858352 1.670399917242344 0.852441103858352 -3.6580966664398096" label_model=mpa-0 structure_key=069b4eb352f79852fc8126ad2ab98db72e480dc85df08f9c93824855b0fcaea6 pbc="T T T"
Si       0.02007397       0.03291632      -0.00536211      -0.77008117       0.10950992       0.01419946
Si       1.35681433       1.38377880       1.36305102       0.21366912       0.34287998       0.10910173
Si       0.01167662       2.80105589       2.72784577       0.28141951      -0.01036735       0.27951707
Si       1.36890666       4.20410903       4.19110786       0.38978864      -0.63097662      -0.44409609
Si       2.71132015       0.02953010       2.73358854       0.45763847      -0.04459282       0.33410190
Si       4.15935971       1.38549329       4.17050547      -0.56560990       0.38864782      -0.63368734
Si       2.81136149       2.79233850       0.06880290      -0.60297328      -0.36174623      -0.58938446
Si       4.14568864       4.12871555       1.37970542      -0.03548136       0.78407393       0.03766045
Si       5.50623624      -0.00468328      -0.09073748       0.05130972      -0.10273561       0.90393889
Si       6.85516836       1.31146403       1.38758407       0.22559174       0.60862419      -0.05485909
Si       5.47515849       2.81252536       2.74284548       0.63505686      -0.60756438       0.34912153
Si       6.91109317       4.15560873       4.16366908       0.11658323      -0.33340146      -0.26834828
Si       8.29723193      -0.00097822       2.79510320      -0.23502890      -0.01469496      -0.34233125
Si       9.65379821       1.44728417       4.06588805       0.03518910      -0.11483704       0.77091704
Si       8.31096212       2.82282130       0.07851138      -0.88542333      -1.16627844      -0.85757222
Si       9.62693894       4.09575688       1.37703138       0.68835155       1.15345907       0.39172065
16
Lattice="11.01006171465229 0.0 0.0 0.0 5.505030857326145 0.0 0.0 0.0 5.505030857326145" Properties=species:S:1:pos:R:3:forces:R:3 config_type=bulk energy=-85.31409824437962 virial="-2.1429385755384525 -2.695323767485655 -3.0770075132767682 -2.695323767485655 -1.0721465730016702 -2.00639957664078 -3.0770075132767682 -2.00639957664078 -0.9704170596973537" label_model=mpa-0 structure_key=f0f86027507398fd741f07cb44fea082a1db03ebafa3f06980d6b8d9192170e6 pbc="T T T"
Si      -0.08135381       0.07944027      -0.09863905       2.25309911      -1.59459372       1.65152277
Si       1.36065789       1.51224709       1.34943774      -0.30057440      -1.35241725      -0.37727364
Si      -0.04729337       2.73967257       2.69298953       0.17593593       1.17962460       0.43428250
Si       1.45722716       4.12867211       4.11678901      -1.41375072      -0.60099806       0.56047816
Si       2.58999041      -0.00583641       2.74131650       1.58505139       1.17576746      -0.31158680
Si       4.15819137       1.47473096       4.21465819      -0.02144679      -1.71760595      -1.31926559
Si       2.86196158       2.73565418       0.03261106      -1.80371820       0.07479795      -0.62909779
Si       4.00227496       4.05040736       1.37635210       1.10056506       1.68759677       0.82262894
Si       5.46892889      -0.08433081      -0.03462642       0.01162857       0.67574639       0.67967389
Si       6.78795692       1.43608488       1.43791822       0.51039402      -0.82416912      -0.91584514
Si       5.45196159       2.78649362       2.74172650       0.18180486       0.52469273       0.63794347
Si       6.95333540       4.21143171       4.09029344      -0.72819821      -1.03772737       0.13050767
Si       8.24436819      -0.02931696       2.69276290       0.53206704       1.42981255       0.39481090
Si       9.74541053       1.42632479       4.21792202      -2.16483993       0.62561812      -2.25210665
Si       8.25676900       2.74881706      -0.02063611      -0.56207730      -0.08133392       0.02251171
Si       9.55935307       4.17609065       1.26944491       0.64405957      -0.16481117       0.47081558
16
Lattice="10.994757031250296 0.0 0.0 0.0 5.497378515625148 0.0 0.0 0.0 5.497378515625148" Properties=species:S:1:pos:R:3:forces:R:3 config_type=bulk energy=-83.69588753638882 virial="2.1785483919684068 -0.9447325471551387 -2.1747924491067776 -0.9447325471551387 1.6623755667047178 -2.3825917133958896 -2.1747924491067776 -2.3825917133958896 1.141754398251324" label_model=mpa-0 structure_key=2608225b1d846e31a654a4b1a462fecc162176da63b0b65730e3e3170f86404a pbc="T T T"
Si       0.02766679       0.08291708      -0.00145227       0.43517101      -0.62266795      -0.34825346
Si       1.53240182       1.30094159       1.35035878      -1.65170127       0.97775344       0.86272468
Si      -0.18405287       2.62003567       2.85420516       2.40342948       1.60967267      -1.10221916
Si       1.54599469       4.14250295       4.22718186      -2.46525767       0.83141977      -2.14794010
Si       2.92259757       0.07538485       2.75236075      -0.82792815      -1.20496417       0.18187137
Si       4.14652040       1.32082378       4.22716849      -0.00446316       1.93997190      -1.47726032
Si       2.71830698       2.77705291      -0.02743576       1.14064154      -1.03573540       0.92602721
Si       4.08860427       4.17510281       1.25513774       0.88759723      -0.70959562       0.82018008
Si       5.47624903       0.03660536      -0.06121060       0.27031382       0.73857598       2.30405395
Si       7.00013210       1.46793183       1.39502021      -1.96202033      -3.40085522       0.81433823
Si       5.53957887       2.61921075       2.56876941      -1.39107442       2.17489901       2.41911145
Si       6.83769871       4.29760386       4.27564560       1.51471208      -2.62473123      -2.28776868
Si       8.31231740       0.12308942       2.76968207      -1.12053276      -1.75959465      -0.37333765
Si       9.47273455       1.35986136       4.18291116       0.75218609       0.65378144       1.61921605
Si       8.20256166       2.70645632       0.23477699       1.70128997       2.96394805      -3.38437261
Si       9.62939682       4.20748978       1.32437490       0.31763654      -0.53187803       1.17362896
16
Lattice="11.242820091268612 0.0 0.0 0.0 5.621410045634306 0.0 0.0 0.0 5.621410045634306" Properties=species:S:1:pos:R:3:forces:R:3 config_type=bulk energy=-84.09462134456673 virial="-12.38841667491649 2.3455684632662814 -0.3263401467546375 2.3455684632662814 -10.839487247346804 4.900369468460959 -0.3263401467546375 4.900369468460959 -12.146708603348014" label_model=mpa-0 structure_key=4f5155b8b6e7f59386bd12b6c63deeb360563b09c6efb29c84b4d6fdaf7d443e pbc="T T T"
Si       0.09232256       0.02445333       0.15850223      -0.84916684      -1.01665452      -1.49840480
Si       1.32330288       1.37436632       1.48270816       0.96054894       0.81532271       0.85339915
Si       0.03480737       2.87459629       2.88907277       0.35259286       0.36506845      -0.43349473
Si       1.52155445       4.17075863       4.25590866      -0.55418906       0.59966091       0.39927822
Si       2.82734113       0.01011688       2.82956192      -0.42532173      -0.24029190      -0.29546480
Si       4.23342215       1.36070825       4.14023402       0.47936874       1.16734281       0.34264607
Si       2.78244326       2.76565032       0.10811388      -0.30974434      -1.19661488      -1.40996552
Si       3.97991927       4.31419400       1.19496979       2.66959581       0.60222693       1.53638364
Si       5.71502734       0.12273192      -0.09163721      -1.22684558      -0.38910623       0.71820816
Si       7.06467977       1.51511425       1.36520015      -0.28540980      -1.44258827       0.89669485
Si       5.75334067       2.88394785       2.80561230      -2.09001411      -0.01691308      -0.67524418
Si       6.93465265       4.19039149       4.31058441       2.34932321       0.03353561      -0.28276871
Si       8.50643257      -0.02097074       2.68895624      -1.14894220       1.07187625       2.10790636
Si      10.02352586       1.54058008       4.27575549      -0.94727976      -1.85819387       0.07319725
Si       8.57033517       2.65733947       0.16168264      -0.24267301       1.74336477      -1.61091812
Si       9.79303316       4.18599538       1.48824631       1.26815687      -0.23803569      -0.72145284
16
Lattice="11.151095064227151 0.0 0.0 0.0 5.575547532113576 0.0 0.0 0.0 5.575547532113576" Properties=species:S:1:pos:R:3:forces:R:3 config_type=bulk energy=-86.30879902389893 virial="-9.8194755156834 -0.46107588023580376 0.07457303801899806 -0.46107588023580376 -9.784670360653696 0.2042491434859997 0.07457303801899806 0.2042491434859997 -9.796136766515833" label_model=mpa-0 structure_key=0199b366a00f4f80f622f180330247b3e37243833fa636475101008a214f5aef pbc="T T T"
Si       0.01221539      -0.02043272       0.00450473      -0.10110841       0.10431568      -0.09348856
Si       1.38102232       1.37928809       1.38491990       0.12993026       0.19066559       0.05593538
Si      -0.01340034       2.80058713       2.78022654       0.15795534      -0.15848431       0.09631116
Si       1.40092745       4.17314455       4.18891150      -0.02173996      -0.03593016      -0.07117328
Si       2.77317722      -0.00186240       2.79708720       0.06025031       0.05083219      -0.01550038
Si       4.19502637       1.38739044       4.19643096      -0.08495252       0.07315582      -0.24729570
Si       2.81589229       2.79185694      -0.00601194      -0.28802871      -0.16884746       0.05015764
Si       4.15124056       4.17943081       1.39035770       0.32362089       0.06990281       0.07618934
Si       5.56912274       0.01081993      -0.01830945       0.08329480      -0.19559781       0.24254600
Si       6.97182083       1.38718060       1.39339292       0.00070313       0.05711833      -0.14108379
Si       5.58389874       2.77480526       2.78263556      -0.04580644       0.17117963       0.04814137
Si       6.98847348       4.19601621       4.18280876      -0.07540716      -0.10229928      -0.13834551
Si       8.38137001       0.00726937       2.75955541      -0.09924682      -0.03095098       0.21132075
Si       9.75582615       1.39309396       4.18255440       0.13017618      -0.07857697      -0.08021184
Si       8.37700715       2.77634286      -0.01523180      -0.09130649       0.12236653       0.17122405
Si       9.76715766       4.18389073       1.39957687      -0.07833441      -0.06884960      -0.16472662
16
Lattice="11.011715421854506 0.0 0.0 0.0 5.505857710927253 0.0 0.0 0.0 5.505857710927253" Properties=species:S:1:pos:R:3:forces:R:3 config_type=bulk energy=-86.19439583264453 virial="-2.6271757524308876 -0.2412623980779229 -0.7279461721772142 -0.2412623980779229 -2.807256804581115 -0.29223752117330554 -0.7279461721772142 -0.29223752117330554 -2.899091873804794" label_model=mpa-0 structure_key=a223a57162e2e8da3e98fb69f357c45fb32707ebe61daa582cae8b9a68343517 pbc="T T T"
Si      -0.01047337       0.05052249       0.02331150       0.38946554      -0.30154973      -0.31860292
Si       1.35606989       1.46784185       1.41183477       0.49651162      -0.84554585      -0.29570200
Si       0.01790895       2.77545242       2.74908123      -0.68681062       0.16046608       0.04650045
Si       1.40599153       4.08523906       4.05635966      -0.41627839       0.45244126       1.16531444
Si       2.73006842      -0.01653179       2.81949058       0.06988142       0.36442127      -1.00818296
Si       4.09976933       1.33698843       4.11185617       0.75587117       0.30039522       0.34415241
Si       2.78631433       2.76942730      -0.00978704      -0.14868200      -0.09844072       0.09553214
Si       4.14525736       4.13818164       1.40272198      -0.39299036       0.09811452      -0.11819492
Si       5.52622186      -0.08592653       0.01674645      -0.33418205       1.33397528       0.33329111
Si       6.95615540       1.37454206       1.41699206      -1.09849556      -0.06512756      -0.39385031
Si       5.52204320       2.79473933       2.70840487       0.00267869      -0.59714681       0.68085462
Si       6.85379088       4.14492968       4.19954686       0.49966072      -0.45204889      -0.86904265
Si       8.23852540       0.02596738       2.74413659       0.53346457      -0.27931706       0.89645355
Si       9.63865742       1.45043270       4.17744612      -0.15843629      -0.37233919      -0.37690630
Si       8.21993304       2.75283669       0.06123379       0.41858492       0.30690717      -0.42367142
Si       9.62256759       4.15854187       1.36487431       0.06975662      -0.00520499       0.24205475
16
Lattice="11.102132264710068 0.0 0.0 0.0 5.551066132355034 0.0 0.0 0.0 5.551066132355034" Properties=species:S:1:pos:R:3:forces:R:3 config_type=bulk energy=-82.84128836377052 virial="-3.5486567446276274 7.638075218271464 -7.109227412017134 7.638075218271464 -1.5969667760865947 0.08864063016564486 -7.109227412017134 0.08864063016564486 -4.957908795114742" label_model=mpa-0 structure_key=1d28d52cc2975794adc77d7225f46bfb1d5668b63ed9e05ad95e080d9be536f2 pbc="T T T"
Si      -0.03199575      -0.06196791       0.16328579      -0.54553312       2.45445013      -0.67841967
Si       1.20955435       1.51630064       1.51595122       1.20820073      -2.08177397       0.10055185
Si      -0.02274221       2.83936713       2.85430927      -0.84990465       1.68631777       1.23403022
Si       1.52403865       4.37817119       4.50632645      -1.36907706      -1.02513757      -2.04823946
Si       2.88684350      -0.12695490       2.98376790      -1.26553163       0.44145277      -2.36991089
Si       4.16727774       1.21650058       4.18236294       0.47271287       1.64579634       1.86967571
Si       2.53328749       2.73202934       0.04387615       2.67604039      -0.87006827       0.66080551
Si       4.21652993       4.09501202       1.43869251      -1.06087219      -1.45527633       1.01620726
Si       5.53114084      -0.15650904       0.10171433       1.18358603       1.12226550      -0.87035764
Si       7.06264963       1.42839368       1.31749892      -2.04079230      -1.80157461       2.17219736
Si       5.64075676       2.66413073       2.97156413      -0.50091092      -0.03317912      -2.02139112
Si       6.99546234       4.17833965       4.03955071      -1.00333077      -1.29285844       2.86216295
Si       8.25903079       0.14712186       3.11381788      -0.09535097      -0.45634596      -4.01769794
Si       9.50571670       1.51444329       4.20583502       4.00095807      -0.27566019       0.56733451
Si       8.34181109       2.69570929       0.06817649      -0.17625408       3.44950358       0.03427940
Si       9.62077976       4.34091190       1.43859934      -0.63394041      -1.50791162       1.48877194
16
Lattice="10.935843452992627 0.0 0.0 0.0 5.467921726496313 0.0 0.0 0.0 5.467921726496313" Properties=species:S:1:pos:R:3:forces:R:3 config_type=bulk energy=-82.96231119259055 virial="4.28250780314025 2.552348397043031 -0.6540766053486552 2.552348397043031 5.866086271232451 -3.311991671223277 -0.6540766053486552 -3.311991671223277 4.892650933989128" label_model=mpa-0 structure_key=ef929cac12833d0f011ef60b98edb05e276ccb44a55fe0c6300c2c7fc1e1f07f pbc="T T T"
Si      -0.13389825       0.08827180      -0.02000539       0.93457586      -0.81042685       0.36672339
Si       1.13208044       1.43739348       1.51045900       1.98012737      -0.94770314      -2.36125739
Si      -0.23406064       2.67584840       2.61735494       1.66506937       3.58508818       0.36873982
Si       1.37288909       4.03254302       4.21638567      -2.51469650       2.31683920      -3.23754911
Si       2.67593048       0.03391157       2.56971920       0.40924078      -0.60804197       1.55003890
Si       4.22945748       1.13968728       4.15768705      -2.04691016       2.07068129      -0.83178826
Si       2.57514693       2.79895888      -0.02744689       2.79677972      -2.92305281       2.09534503
Si       4.16595467       4.18479529       1.22834906      -3.57233841      -3.23985870       3.02797403
Si       5.44506307      -0.13508665       0.11225627       3.38770147       2.15552613      -2.30617583
Si       6.76134039       1.35059205       1.34953198       1.34368206       0.73200569       0.93979160
Si       5.44021810       2.84463983       2.88002600      -0.43512136      -1.24475984      -1.47443083
Si       6.86053341       4.15503502       4.07880492       0.72680393      -0.16962590       1.32112471
Si       8.34630898       0.01434542       2.90810476      -1.96521717       0.14776977      -1.73478043
Si       9.65202868       1.47467691       3.98096228      -1.18745941      -1.21045640       2.71097582
Si       8.38690316       2.79295176      -0.01819920      -2.89773307      -1.56695713      -1.10563912
Si       9.41536249       4.11238202       1.35653377       1.37549551       1.71297247       0.67090766
16
Lattice="10.634249507128505 0.0 0.0 0.0 5.3171247535642525 0.0 0.0 0.0 5.3171247535642525" Properties=species:S:1:pos:R:3:forces:R:3 config_type=bulk energy=-84.26560024062086 virial="19.883547827177026 2.0148244730509135 -1.124787666585169 2.0148244730509135 18.85040097703804 -2.2772531726374736 -1.124787666585169 -2.2772531726374736 19.392836346392826" label_model=mpa-0 structure_key=ed13fd31c675cc3ea6737a3c4de1812e7f7c15e25d019e666c5718c7cc9dec5f pbc="T T T"
Si      -0.03382039       0.08845697       0.07763045       0.29640714      -0.14923997      -0.14810622
Si       1.46874047       1.42626977       1.37640646      -2.32730951       0.54765099      -1.56615629
Si      -0.03782733       2.63511091       2.63178627       2.55682206       1.04279344       0.01980121
Si       1.29414003       4.02326822       4.03695404      -0.11615785       0.19760670      -0.34072727
Si       2.59310907       0.15213636       2.63994079       0.50939437      -3.80008159       0.57462427
Si       3.93577590       1.31465313       3.87299302       1.65956256       0.27941074       1.88460490
Si       2.71178055       2.65771841      -0.02374656       0.02543703       0.54636549      -0.76350314
Si       3.99402242       3.94573204       1.34890470       0.07913750       1.74255288      -0.43861880
Si       5.45704823       0.06709052      -0.00515083      -1.98729964      -1.11921729      -0.89980210
Si       6.67724507       1.32677608       1.33317180       0.67052263      -1.58907000       0.98286598
Si       5.29706354       2.53072705       2.52091651      -0.15147317       1.30062388       1.50656245
Si       6.62512741       3.92981174       3.93038975       0.10215623      -1.12286801       0.98840631
Si       7.99113139      -0.13645499       2.64393139       0.04996751       1.12473663       0.07753789
Si       9.36452147       1.38393397       3.84369362      -1.67012019      -2.05455574       1.94184731
Si       8.02423397       2.48661931       0.11640233       0.49335862       1.72436238      -2.55517065
Si       9.32293900       3.87435157       1.36374478      -0.19040531       1.32892946      -1.26416584
16
Lattice="11.077734413292244 0.0 0.0 0.0 5.538867206646122 0.0 0.0 0.0 5.538867206646122" Properties=species:S:1:pos:R:3:forces:R:3 config_type=bulk energy=-85.40635823146717 virial="-6.456087798732824 -1.0350226031689629 0.7215835371582053 -1.0350226031689629 -5.155758632612254 -1.2303021269599537 0.7215835371582053 -1.2303021269599537 -5.389944846536638" label_model=mpa-0 structure_key=e616620bf9acaa68bb5faafbfe91878485841b3d49f204bf1a39ad546cd5e346 pbc="T T T"
Si       0.16444327      -0.02211056       0.01255234      -1.83952131      -0.25987402       0.40331396
Si       1.44747258       1.41091241       1.34580608       0.17033002       0.22940995       0.30530606
Si       0.01002770       2.77539923       2.74137591      -0.72344713       0.04149252      -0.43991302
Si       1.32488605       4.10208710       4.12094208       0.20571895       0.57296318      -0.27147639
Si       2.73336799      -0.02761164       2.83894683       0.31186873       0.61924096      -0.09805485
Si       4.21176943       1.38252676       4.23506993      -1.67425029      -0.39469128       0.29886063
Si       2.73881470       2.90337460      -0.08537644       0.82569938      -0.97518743       0.97912050
Si       4.14174071       4.17123821       1.48488004      -0.09143567       0.16901896      -0.79928047
Si       5.56892232       0.09812837       0.03847849       0.28079655      -0.81626079       0.88912780
Si       6.92023348       1.48683162       1.52443325      -1.28893573       0.12444670      -0.92859646
Si       5.39196957       2.71244325       2.89634983       1.22443349       1.15729253      -0.98432742
Si       6.87384169       4.18808353       4.12905881       0.09595240      -0.04454960       0.41036667
Si       8.22979901       0.14121171       2.72155538       0.95157396      -1.02832617       1.58129553
Si       9.81873444       1.40115220       4.17947056      -0.80239563      -0.31167187       0.29028116
Si       8.23378931       2.72359819       0.08011071       0.35540815       0.44657383      -1.21570955
Si       9.45744242       4.14860069       1.44555769       1.99820413       0.47012251      -0.42031416
16
Lattice="11.156432385070048 0.0 0.0 0.0 5.578216192535024 0.0 0.0 0.0 5.578216192535024" Properties=species:S:1:pos:R:3:forces:R:3 config_type=bulk energy=-84.17425437712077 virial="-6.928238531996004 -1.0326462136257246 -5.146488170749494 -1.0326462136257246 -6.769224410503883 -4.5896638876084666 -5.146488170749494 -4.5896638876084666 -6.14707335984841" label_model=mpa-0 structure_key=22b7645d9f1d42ed27efaf16a4cd849b414c18a70fe4e5c1048bc3d6a2a9f4f2 pbc="T T T"
Si       0.00441472       0.03549622      -0.09604035       0.15215486       0.17749686      -0.12672333
Si       1.28702718       1.38026300       1.48153048       2.15988167      -1.24235136      -1.81184480
Si       0.05637330       2.64769035       2.74495682      -0.83861584       3.06138692       0.61090518
Si       1.56349214       4.19810947       4.11397885      -3.84805940      -0.95809594       0.56017250
Si       2.78938537      -0.08999640       2.95506946       1.60577074       2.83930008      -2.36818301
Si       4.21398201       1.42583540       4.23056483      -0.71880710       0.37026203       0.07143612
Si       2.67949492       2.99464306      -0.01390284       1.79928231      -2.23919052       1.96637012
Si       4.23518161       4.29422971       1.47614599      -1.92701374       0.64076851      -1.54169657
Si       5.60655701      -0.01540993       0.04086306       0.21802627       0.48304592      -0.70686566
Si       6.90445554       1.50013025       1.31407640       0.62815536      -0.71841338       0.50307163
Si       5.40926507       2.86936843       2.63857171       2.12450320      -1.37983766       1.96078423
Si       7.04063696       4.23151664       4.10727893      -1.56413247      -0.75859065       0.21020981
Si       8.39832093      -0.12322043       2.74692961      -0.12331172       2.17927423      -0.52302509
Si       9.74524743       1.50390848       4.04203183      -0.29597528      -1.64784053       0.79462756
Si       8.33701898       2.77794616      -0.14658160       0.32794290       0.57117533       0.88412014
Si       9.79376542       4.24760110       1.33715683       0.30019823      -1.37838984      -0.48335883
16
Lattice="10.808473773059369 0.0 0.0 0.0 5.404236886529684 0.0 0.0 0.0 5.404236886529684" Properties=species:S:1:pos:R:3:forces:R:3 config_type=bulk energy=-86.4405053843345 virial="6.583084854433015 -0.5941226630964912 -1.1531525019858955 -0.5941226630964912 6.553670489052617 0.7676414535685492 -1.1531525019858955 0.7676414535685492 6.54252611026308" label_model=mpa-0 structure_key=a2087a0f0c45effb95826eeb9871cd1211dea249fde2495b7d7a53e1735d0f45 pbc="T T T"
Si       0.00893000      -0.02501356       0.00608873      -0.17706311       0.26948693      -0.00781788
Si       1.34047036       1.32670707       1.36674043       0.12458522       0.31365696       0.03734679
Si      -0.01150088       2.72118161       2.74399822      -0.02161829      -0.31361902      -0.42362545
Si       1.33866883       4.05720567       4.05181024       0.31425275      -0.11345693       0.13257059
Si       2.71290373      -0.02647109       2.70944165      -0.06194584       0.12605868      -0.10509029
Si       4.02868283       1.34787919       4.06958945       0.38471688      -0.09639871      -0.39466141
Si       2.72523675       2.68918738      -0.01686408      -0.46027451       0.21452466       0.37552818
Si       4.07696338       4.07148049       1.32885537      -0.07197631      -0.45774304       0.26660195
Si       5.39719134       0.00287156      -0.00405178       0.20674744       0.27570656       0.04711726
Si       6.76148438       1.36738325       1.36633340       0.12157629      -0.32501949      -0.41921002
Si       5.43738992       2.66936627       2.69116573      -0.46051580       0.49240146       0.34264563
Si       6.76118025       4.08463889       4.05654714      -0.14849840      -0.23628157      -0.22587531
Si       8.11217480      -0.01208601       2.67747586       0.07641572       0.13862683       0.10490559
Si       9.44256134       1.34829963       4.06467351       0.14537639      -0.22284962      -0.10456477
Si       8.09004107       2.69891854      -0.03557273       0.02079702       0.06602508       0.32887222
Si       9.45297926       4.03823046       1.33436126       0.00742453      -0.13111878       0.04525691
16
Lattice="10.700162266239017 0.0 0.0 0.0 5.350081133119509 0.0 0.0 0.0 5.350081133119509" Properties=species:S:1:pos:R:3:forces:R:3 config_type=bulk energy=-86.18793183082596 virial="12.490808860875267 0.24308946630098788 -0.19832750749777966 0.24308946630098788 12.529960971148737 -0.7614030215521301 -0.19832750749777966 -0.7614030215521301 12.437545361032909" label_model=mpa-0 structure_key=b689b674af132ff60a62311f7b3ec1dd6d3ade2b1e235ecc30d9805e128c027e pbc="T T T"
Si      -0.01531322       0.00893433       0.00459461       0.24856933       0.16127959      -0.16230851
Si       1.34191065       1.35260860       1.31666830      -0.07483612      -0.22664505       0.35479573
Si      -0.00563964       2.68051117       2.67427267       0.25725404       0.00593562      -0.06259568
Si       1.32919423       4.02496177       4.02350120       0.02266322      -0.02566252      -0.10489264
Si       2.68506509       0.00079522       2.68200958      -0.20927317       0.15322674      -0.05508999
Si       4.01494301       1.34717557       4.01679886      -0.09752109      -0.01866877       0.06056894
Si       2.66429345       2.68103716       0.00785269       0.24059720       0.17842001      -0.09333869
Si       4.01938654       4.02167623       1.35550926       0.01254503      -0.00109087      -0.31372484
Si       5.36277580      -0.00102459      -0.02552116       0.03115210       0.03153186       0.35950876
Si       6.70856257       1.34534249       1.34665022      -0.13714358      -0.04788818      -0.14534483
Si       5.33871760       2.67523881       2.67965831       0.24861114       0.02078410      -0.06864325
Si       6.70601089       4.01238708       4.00175089      -0.12611491       0.02314296      -0.09216978
Si       8.05064630       0.02511929       2.70210363      -0.06679230      -0.44407609      -0.54653209
Si       9.36850557       1.34408278       3.99826165       0.20507789       0.05156062       0.18884064
Si       8.03348913       2.66875098      -0.03628631       0.00634297       0.10731878       0.39868832
Si       9.39552361       4.00864436       1.31162693      -0.56113176       0.03083120       0.28223790
16
Lattice="10.697706971362974 0.0 0.0 0.0 5.348853485681487 0.0 0.0 0.0 5.348853485681487" Properties=species:S:1:pos:R:3:forces:R:3 config_type=bulk energy=-81.70964383002247 virial="18.060676577931847 -16.08800867007405 2.544284501230647 -16.08800867007405 21.89462699444675 -14.734744998252491 2.544284501230647 -14.734744998252491 18.205951140607493" label_model=mpa-0 structure_key=0df0e4c0f4dd3cc922e0c6b198a6b1daf10ee27f552ffa3ea53f7c03a4d6efcf pbc="T T T"
Si      -0.07879183      -0.07859315      -0.00583712       1.02875941       0.21980718       0.08267928
Si       1.42299762       1.24605347       1.47924972      -4.79320460       3.73962664      -6.32609877
Si      -0.00531280       2.58470548       2.53770222       1.26784721      -0.47960221       2.96398577
Si       1.49258378       3.95300819       4.03000961      -1.53703301       0.14334892      -0.49783927
Si       2.52864706       0.15731137       2.59582303       6.35730703      -5.46514412       5.32496842
Si       4.04594441       1.48070470       4.10160174      -0.26637632      -1.29366853      -2.37715219
Si       2.75299691       2.62038816       0.09410978      -1.42998602       0.45615061       0.43046799
Si       4.13336034       3.94536015       1.26952260      -1.96292974       0.21735253       2.23982810
Si       5.14631200      -0.02782506      -0.01302653       3.09578707       0.33073658      -1.43682909
Si       6.69211830       1.25725045       1.25183425       0.20835224      -0.46919616      -1.58122216
Si       5.38575907       2.50995891       2.50176198       0.40844790       1.58714016       2.36385675
Si       6.90058938       3.95434328       4.07758554      -5.13636668       2.44501566      -2.39254266
Si       7.90847567      -0.14347468       2.54205979       0.84543422       1.24891256       0.90394424
Si       9.26803783       1.30558698       3.96890754       0.93718890      -1.20178856      -1.23426030
Si       8.00246112       2.65984257      -0.17859986       2.34047437      -1.98531631       4.45934273
Si       9.42264831       3.94535913       1.49968481      -1.36370198       0.50662505      -2.92312883
16
Lattice="10.837658808081214 0.0 0.0 0.0 5.418829404040607 0.0 0.0 0.0 5.418829404040607" Properties=species:S:1:pos:R:3:forces:R:3 config_type=bulk energy=-86.31369418988659 virial="5.428625851131655 2.2826955011791497 0.5953940211252345 2.2826955011791497 5.461555423012868 -0.6933181743702205 0.5953940211252345 -0.6933181743702205 5.146795213227877" label_model=mpa-0 structure_key=273e7884fe0e25dbed424d153c687aa949bf66817f4f0b8c689e0a1bcf48b036 pbc="T T T"
Si      -0.02351997      -0.00180168      -0.03155022       0.12179285       0.13159881       0.02589218
Si       1.33482006       1.38508887       1.31114996       0.13082799      -0.59844016       0.33026024
Si       0.00568960       2.72816434       2.64817200      -0.51750765      -0.08144803       0.10097570
Si       1.31728011       4.07410363       4.00474734       0.18323735      -0.00729817       0.40866354
Si       2.71785270      -0.00159705       2.72344255      -0.37754665       0.41019641      -0.28299613
Si       4.08018138       1.33626332       4.05517628      -0.27473354       0.61830959       0.29305073
Si       2.66146659       2.77202589       0.04562451       0.18770498      -0.55693171      -1.06427980
Si       4.00830867       4.06083228       1.35670816       0.34489144       0.32115540       0.19079119
Si       5.38409250      -0.01388949       0.02643781       0.06955108      -0.00961023      -0.19053721
Si       6.76102712       1.36146414       1.29796710      -0.20755394      -0.02256150       0.87693729
Si       5.39867439       2.77294292       2.70275170       0.27389550      -0.55802406       0.00766537
Si       6.78836496       4.06671731       4.11248189      -0.80629645      -0.11626541      -0.09011685
Si       8.05254318      -0.01614044       2.78567350       0.68487936       0.51124278      -0.93936772
Si       9.48792292       1.36992294       4.05844557      -0.21493005       0.20612137      -0.19145322
Si       8.10122516       2.73192830       0.01024790       0.38503415      -0.48150521      -0.26883139
Si       9.44053727       4.08206226       1.29707794       0.01675358       0.23346014       0.79334608
16
Lattice="10.855801010052533 0.0 0.0 0.0 5.427900505026266 0.0 0.0 0.0 5.427900505026266" Properties=species:S:1:pos:R:3:forces:R:3 config_type=bulk energy=-85.27008890632095 virial="6.013593814730181 5.309627342573965 -1.8515131255251223 5.309627342573965 6.386470064265073 3.6937891788494053 -1.8515131255251223 3.6937891788494053 5.438955335994672" label_model=mpa-0 structure_key=1114e5b191969cc5c0c93f57bbee9d6cdc5dc85b08642108570d017c3376d19b pbc="T T T"
Si       0.07041905      -0.04982194       0.00248598       0.01470998       0.26024766      -0.27375319
Si       1.37548014       1.41959077       1.38702493       0.04786623      -0.38310964      -0.22849788
Si      -0.04651568       2.64361587       2.87781397       0.92473120       0.99835350      -2.38990743
Si       1.40890283       4.03285784       3.92068575      -0.10943558       0.15358671       1.80471950
Si       2.75961069      -0.04267406       2.70643674      -1.05351501       1.13278496      -0.41991978
Si       3.90037046       1.43349059       3.99769946       2.36673713      -0.92869296       0.65737635
Si       2.81100545       2.77347716      -0.00222134      -0.97020550       0.68067792       0.90118759
Si       4.14232547       4.15394277       1.48326781       0.57965145      -1.27158856      -1.04986492
Si       5.46063876      -0.11532337      -0.00556367      -0.44818095       1.60096387      -0.63316302
Si       6.88974218       1.34060622       1.26453633      -0.85790308      -0.10221546       0.70275268
Si       5.51632705       2.73146805       2.77580732      -1.13756524      -1.68450531      -1.43601664
Si       6.78010980       4.00421880       4.01879806       1.57783683       1.30225350       0.94145518
Si       8.24813355       0.01891718       2.67989169      -1.13323205      -0.13240589       0.28245050
Si       9.51886729       1.36311918       4.05182122      -0.88013560      -0.96094752       2.05210169
Si       8.19657410       2.80235916       0.07143961      -0.40113774      -0.86355059      -1.46252685
Si       9.49959109       4.05125440       1.37704782       1.47977794       0.19814781       0.55160623
16
Lattice="10.717185547369928 0.0 0.0 0.0 5.358592773684964 0.0 0.0 0.0 5.358592773684964" Properties=species:S:1:pos:R:3:forces:R:3 config_type=bulk energy=-85.33418470733868 virial="12.973080209930018 1.8602626874800356 1.6624939779797592 1.8602626874800356 13.47570021717787 -0.46810495377415484 1.6624939779797592 -0.46810495377415484 13.220897839272098" label_model=mpa-0 structure_key=73077a200a855b444e0016ae1d32e8dade991efaceac132cf43eed35e19e62cc pbc="T T T"
Si       0.06066712       0.04496717      -0.08304846      -0.53874798      -0.46422116       0.79923081
Si       1.30454577       1.36475925       1.32622546       0.70342616       0.04218970       0.15523707
Si       0.06662614       2.70325065       2.73180328      -0.51834775       0.03765898      -0.82343968
Si       1.35700597       4.06701568       3.96472800       1.08095610      -0.02181779       0.42067644
Si       2.75850810       0.06058935       2.65535429      -0.98803331      -0.42789626      -0.47263627
Si       4.07396180       1.31096151       3.96411727      -0.84117147       0.60711564       1.16520822
Si       2.69440438       2.70740732       0.02157768       0.17410334       0.00831847      -0.49337835
Si       4.08139105       4.13103555       1.27991496      -1.06613695      -0.74470064       0.23212673
Si       5.35884746       0.03311299      -0.02482594       1.35063507       1.01130559       0.60824296
Si       6.82001747       1.40873803       1.41567511      -1.45281442      -0.21516405      -0.35860109
Si       5.20452418       2.70199545       2.65124611       2.09598536       0.53568428      -0.18671750
Si       6.65660659       4.00288270       4.11050782       0.40591700       0.00939418      -1.42963358
Si       8.13745316       0.12547665       2.77938883      -1.82757819      -2.77333627      -1.36992611
Si       9.43197267       1.32868730       3.94924463       1.09444032       1.54900942       1.66812785
Si       8.07353095       2.64607867      -0.04102222       0.44460377       0.40969855       0.31453443
Si       9.42302263       4.02404213       1.35228878      -0.11723705       0.43676137      -0.22905193
16
Lattice="11.432823508422546 0.0 0.0 0.0 5.716411754211273 0.0 0.0 0.0 5.716411754211273" Properties=species:S:1:pos:R:3:forces:R:3 config_type=bulk energy=-84.92709889949265 virial="-21.563667043926756 -0.18288364141444757 -0.757243130813374 -0.18288364141444757 -21.619889693437685 -0.49403721927298183 -0.757243130813374 -0.49403721927298183 -21.529053204079943" label_model=mpa-0 structure_key=4b1899c726fcd18d79fc33a3e675b47c98cd24f80668ddecfb32b2dc8548a79a pbc="T T T"
Si       0.07619314      -0.00490177      -0.01993821      -0.63080375       0.13291824       0.47074799
Si       1.42540333       1.49179820       1.42424139      -0.06620111      -0.36417089       0.14575597
Si      -0.03762164       2.89677620       2.89231564       0.16547478      -0.28480685       0.01046733
Si       1.43944646       4.29337350       4.29089162       0.10352021      -0.27249540       0.05204264
Si       2.82367917      -0.02096099       2.84759773       0.09013791       0.13475531      -0.14069450
Si       4.22669799       1.38113692       4.28419832       0.63264172      -0.09816111       0.06469427
Si       2.88877738       2.82002268       0.01119132      -0.15879473       0.34246519      -0.11842180
Si       4.30812285       4.25593945       1.44138780      -0.26931016      -0.07979157       0.18341682
Si       5.69935445      -0.09547880       0.05781074       0.21165854       0.76569421      -0.41452047
Si       7.17452102       1.47453504       1.42814683      -0.52372201      -0.64526177       0.03673811
Si       5.73972155       2.85488643       2.85351786      -0.25403186      -0.20309850       0.27422961
Si       7.16256358       4.24431365       4.31618421      -0.45755647       0.09946315      -0.03304250
Si       8.48622690      -0.02363172       2.89100905       0.62738995       0.33769697      -0.03132878
Si       9.99989002       1.40577617       4.30420850      -0.08671334      -0.06438082      -0.06050925
Si       8.53960560       2.83645328      -0.00884535       0.70546474       0.14909717       0.28333231
Si       9.98965578       4.30119736       1.51311896      -0.08915443       0.05007669      -0.72290776
16
Lattice="11.421319051563382 0.0 0.0 0.0 5.710659525781691 0.0 0.0 0.0 5.710659525781691" Properties=species:S:1:pos:R:3:forces:R:3 config_type=bulk energy=-82.84997813960533 virial="-18.978514324581145 0.7131713191923497 6.1888715642109515 0.7131713191923497 -18.393278567113583 3.407934914318401 6.1888715642109515 3.407934914318401 -18.736133619409127" label_model=mpa-0 structure_key=e8f6c141a8996684afcc0ecdc57eecbab899783c37c37771ea605d3e32243dd9 pbc="T T T"
Si       0.08000396       0.04398067       0.04072444      -1.24618019      -0.62485470      -0.29826420
Si       1.42156472       1.47748935       1.45045904       0.45152936       0.11538198      -0.48894642
Si      -0.07066249       2.91171084       2.68872100      -0.28011503      -0.12651391       0.81527073
Si       1.34708421       4.23856610       4.20654951       0.33872651       0.87299650       0.17413423
Si       2.82773051       0.13471652       2.93487740      -0.13836488      -1.61610444      -0.52439739
Si       4.28457063       1.38452500       4.25132419       0.39070262       1.03852253       0.51997643
Si       2.86139941       2.88605493      -0.09825003       0.05466284      -0.11472294       0.57030685
Si       4.36799499       4.20193307       1.53308180      -2.02959958       1.97296194      -1.63057511
Si       5.66393538       0.12637200       0.15428052       0.29273708      -1.49872756      -1.18969872
Si       7.20903707       1.33261251       1.50111346      -0.07544085       1.32659680      -0.93538170
Si       5.67542687       2.81614935       2.65907604       1.09937238      -1.30578434       1.98527977
Si       7.03857313       4.24426950       4.15053629       0.33021474       0.44593836       1.42990065
Si       8.52743044       0.01807391       2.88267201       0.40196289      -0.44320232       0.69274081
Si      10.01676725       1.57441202       4.33472759       0.45879772      -0.92239099      -0.38650991
Si       8.70438959       2.93268878       0.11151890      -3.86720584      -3.11502308      -3.55013981
Si       9.71023406       4.17340363       1.39011510       3.81820024       3.99492618       2.81630379
16
Lattice="11.474925121492044 0.0 0.0 0.0 5.737462560746022 0.0 0.0 0.0 5.737462560746022" Properties=species:S:1:pos:R:3:forces:R:3 config_type=bulk energy=-82.15381123864982 virial="-20.801163341049342 1.104513773985495 -1.5911545244495733 1.104513773985495 -19.964326284189465 -3.407636029014572 -1.5911545244495733 -3.407636029014572 -20.713589231864198" label_model=mpa-0 structure_key=9f58242b331f88833636b364b4d5a00d42dafc3b9ca85b8f3510f8c20bcf128d pbc="T T T"
Si       0.04146254       0.02506552       0.03054455       0.49381969      -0.06051539      -0.98994750
Si       1.31933258       1.35647359       1.60994669      -0.09591276       0.09577343      -1.32366045
Si      -0.11242701       2.73562476       2.81508000       1.26869826       2.68727052      -0.49383456
Si       1.63609206       4.31463721       4.39212694      -1.60131103      -0.27065850      -0.49539848
Si       2.80637838       0.04780067       2.78024841       2.02070218      -0.44686092       1.48512258
Si       4.48930115       1.69876492       4.30695636      -2.95577065      -2.06255871       1.18250650
Si       2.69363393       2.72933395       0.12632999       1.96221815       0.96495113      -0.07103198
Si       4.47624761       4.36338969       1.46952795      -1.79818758       0.04106662      -1.00090456
Si       5.78347164       0.10542533      -0.14553094      -0.01644612      -0.21852540       1.18536380
Si       7.20239290       1.22584860       1.57819427       0.03931179       1.55981441      -0.80595849
Si       5.67605603       2.86445073       2.87702072       2.16756439       1.04822615      -0.95469669
Si       7.09209756       4.31399404       4.36227280       1.32726584      -0.54376149      -0.54607492
Si       8.73439535      -0.04657894       2.90767381      -0.71303761      -0.80540481      -0.07707614
Si      10.18197121       1.39720079       4.13666832      -1.33164517      -0.44545511       2.32134020
Si       8.70266093       2.89963497       0.09681441      -1.44729961      -1.41319448      -1.33680544
Si      10.01848506       4.36913005       1.22383540       0.68003023      -0.13016745       1.92105613
16
Lattice="10.537382290337227 0.0 0.0 0.0 5.268691145168614 0.0 0.0 0.0 5.268691145168614" Properties=species:S:1:pos:R:3:forces:R:3 config_type=bulk energy=-85.15856585850155 virial="23.416578709702826 -0.5217323809889398 -1.2321728518056385 -0.5217323809889398 23.18432868394334 0.15975059042291417 -1.2321728518056385 0.15975059042291417 23.348596847036756" label_model=mpa-0 structure_key=e00cd6c74678ad1cbd627ef92cbcb5ce9c176df51a28c6cfc3f7794a47eeb821 pbc="T T T"
Si      -0.02768094       0.03767861       0.01468435       0.62195883      -0.90643009       0.20176997
Si       1.30736166       1.36188778       1.28620038       0.28654180      -0.45517812       0.32780112
Si       0.00441505       2.61829577       2.64111584      -0.06489650       0.03649171       0.25456417
Si       1.30977104       3.93262550       3.96424664       0.25023774       0.53506339      -0.04154154
Si       2.66496180       0.03365068       2.62303660      -0.81589316      -0.17255319       0.14523278
Si       3.92802505       1.34336900       3.98011316       0.78326812      -1.04040057      -0.53770503
Si       2.67017136       2.58340134      -0.03653552      -0.68203803       1.43173565       0.90831806
Si       3.95309506       3.96113062       1.33762685      -0.04196187      -0.32493014      -0.43787185
Si       5.26839027       0.02299194       0.01597685      -0.07173395      -0.56184629      -0.51591407
Si       6.60475889       1.28645558       1.28732734      -0.34594607       0.60209246       0.72284756
Si       5.22852904       2.61698723       2.66338971       0.84352124       0.08066886      -0.42958349
Si       6.61258614       3.97863036       3.91276753      -0.39557982      -0.57986878       0.72710802
Si       7.90936553      -0.02363565       2.60124874       0.29509276       0.47420558       0.19800507
Si       9.23386496       1.28723112       3.97594723      -0.43202884       0.19805877      -0.86621416
Si       7.93044797       2.59293480       0.00988742      -0.26592965       0.77572502      -0.30015271
Si       9.23643446       3.93520494       1.33846176       0.03538738      -0.09283427      -0.35666390
16
Lattice="11.016179444684806 0.0 0.0 0.0 5.508089722342403 0.0 0.0 0.0 5.508089722342403" Properties=species:S:1:pos:R:3:forces:R:3 config_type=bulk energy=-84.68232995010571 virial="-1.4454385832140535 -0.3238118589530323 6.295789382506225 -0.3238118589530323 -1.0682405413910068 -5.164600956582774 6.295789382506225 -5.164600956582774 -1.5000870821191734" label_model=mpa-0 structure_key=11fa0612ec0277d538920a99ba4e931bf07d3430e8e11b5ec6fa37012e06e8c5 pbc="T T T"
Si       0.03715027       0.06032320       0.15278922      -1.29686730      -1.32358346      -2.25855919
Si       1.26485592       1.39332572       1.44779841       1.50091496       1.20440256      -0.55780936
Si      -0.13089411       2.73417832       2.64816903       0.53722207       0.81474008       0.39842025
Si       1.31327461       4.11836711       3.98950649      -0.32786584       0.02538519       1.67214024
Si       2.60475593       0.04252125       2.74066518       1.08866930      -0.12471110       0.10196696
Si       4.03095206       1.35231007       4.18870643      -1.09806972       2.00996657      -1.59200006
Si       2.77003086       2.91736074       0.10066402      -1.42319520      -1.70213808      -1.24939935
Si       4.11951934       4.14547753       1.40906741      -0.83251907       2.01903832      -0.12759002
Si       5.27449525       0.05224163      -0.08645067       2.89609755      -1.42517350       1.42213013
Si       6.96886808       1.35395813       1.26391697      -2.28605062       0.24968928       0.52518423
Si       5.39701821       2.91479148       2.72517093       1.54168581      -2.58308265       0.76100178
Si       6.87240463       4.02347274       4.19395756      -1.67346308       2.19982706      -1.03966300
Si       8.16648123       0.02136350       2.76360867       0.34922451      -0.85405400       0.04294239
Si       9.68729672       1.37203339       3.97537677      -0.69071843      -0.64372661       1.79102489
Si       8.19205977       2.72153333      -0.12091523       1.76700138      -0.74088994       0.50668315
Si       9.51650436       4.07314071       1.35664173      -0.05206631       0.87431027      -0.39647304
16
Lattice="11.398284161724353 0.0 0.0 0.0 5.699142080862177 0.0 0.0 0.0 5.699142080862177" Properties=species:S:1:pos:R:3:forces:R:3 config_type=bulk energy=-83.00746441479038 virial="-17.083511920012295 2.1653766581661156 -1.1538437823078207 2.1653766581661156 -17.162253477430323 1.0704523198082347 -1.1538437823078207 1.0704523198082347 -17.863773114041262" label_model=mpa-0 structure_key=29656caedaeb84e2d185af469f4de8b160c9ec3a037eda558a8c41825f8d4c9d pbc="T T T"
Si       0.08373787       0.06447950       0.15189052      -0.26360250      -1.24765443      -2.09071680
Si       1.47118574       1.43196117       1.31346130       0.22832023       0.41010348       1.90712408
Si      -0.09165315       2.71470635       2.95934538       2.75895098       2.35627505      -2.67191819
Si       1.48431316       4.03639356       4.33292746      -1.14606697       2.32468207      -0.54170895
Si       2.87330356       0.03440196       2.87851810      -1.01852256      -1.35287139      -0.89148727
Si       4.12064483       1.52019738       4.08678988       1.82600251       0.07137242       1.61618293
Si       2.85781882       2.88932678       0.02151746       0.77177098      -0.84349370       0.08455191
Si       4.27552445       4.23626940       1.41716358       0.68060614       0.40688968       0.45020273
Si       5.67533801       0.04391112       0.03582226      -0.44470800      -0.06049904      -0.62437870
Si       7.02482367       1.43808191       1.58456113       2.45488877      -1.70583445      -2.97136298
Si       5.87226835       2.75929464       2.79571578      -2.88487632       2.47977914       1.93734421
Si       7.14032794       4.21764703       4.32912525       0.60531379       0.48864122      -0.20075784
Si       8.55966697       0.06307857       2.78247962       0.17228149      -0.59566579       1.18426138
Si      10.12570854       1.48173290       4.22627400      -2.39362468      -2.62693916       2.18187777
Si       8.69235438       2.79014422       0.01439937      -0.74810284       0.48203420       0.41389770
Si      10.07570156       4.34023847       1.46392738      -0.59863101      -0.58681931       0.21688801
16
Lattice="11.28172712956463 0.0 0.0 0.0 5.640863564782315 0.0 0.0 0.0 5.640863564782315" Properties=species:S:1:pos:R:3:forces:R:3 config_type=bulk energy=-82.46013841281255 virial="-10.72504232344405 1.9692455424180273 5.6952369689106455 1.9692455424180273 -11.402323034540881 6.248471624991553 5.6952369689106455 6.248471624991553 -11.009581169958604" label_model=mpa-0 structure_key=ff5a05290c2be29ff902dceb0b4f38ebf960ffc2b0b89f025f2f79e5a0c9e79c pbc="T T T"
Si       0.04250380      -0.02626780       0.13350700      -0.45288148      -0.45247295      -2.06286741
Si       1.32108853       1.31078199       1.54839109       0.29541405       1.04879861      -3.53764242
Si       0.06530328       2.66915313       2.66524632      -1.41234478       3.25187599       0.79904346
Si       1.46804343       4.24416960       4.04749212      -0.37925235      -0.28863734       1.63687040
Si       2.67175517       0.24554250       2.78141413       2.07740503      -3.72402482       0.74818980
Si       4.05085400       1.37350912       4.12884581       2.22399938       1.09336745       2.02922508
Si       2.85704850       2.86595724       0.18925576      -1.35364418      -1.30526519      -2.07707767
Si       4.30429958       4.05577506       1.44028552       0.54782788       2.10475349       0.87754999
Si       5.74067544      -0.09362282       0.02069370      -1.67234464      -0.40169337      -0.80469019
Si       6.97121071       1.32339710       1.48184428       1.85525218      -0.17719107      -0.85218566
Si       5.79050785       2.72975483       2.83305617      -3.16322368      -1.22255529      -0.84762530
Si       6.92474520       3.97503884       4.17937196       2.43824993       2.79585319       1.72144628
Si       8.50409866      -0.02944318       2.87058451      -0.84604144      -0.42392090      -0.01621540
Si      10.05258951       1.42662913       4.06891479      -1.19904353      -0.71386204       2.17851587
Si       8.46384923       2.82807904      -0.01667572      -0.46809453      -1.44976001      -0.77581201
Si       9.69873004       4.25270171       1.29778096       1.50872216      -0.13526575       0.98327520
16
Lattice="11.228944123581682 0.0 0.0 0.0 5.614472061790841 0.0 0.0 0.0 5.614472061790841" Properties=species:S:1:pos:R:3:forces:R:3 config_type=bulk energy=-84.31373701647242 virial="-12.771204751912697 -1.6313540308542405 1.881197923713403 -1.6313540308542405 -10.892795200874513 2.4485643822339433 1.881197923713403 2.4485643822339433 -12.05794249543798" label_model=mpa-0 structure_key=24f574fcebe206a4b1964fa4c456e2f70ace44a198d20b29c7f58fe68e396328 pbc="T T T"
Si       0.09353252      -0.00634911       0.01633613      -1.79667217      -0.41369594      -0.07364689
Si       1.34972505       1.28108957       1.40244492       1.31299485       1.13299055       0.38995785
Si       0.08225015       2.77579911       2.84506386      -1.79447107      -0.84463855      -0.31642540
Si       1.19595382       4.07344086       4.34402443       2.40076384       0.61047968      -0.88701426
Si       2.85841480      -0.04963263       2.74048573      -0.99809602      -1.32790253       0.28056210
Si       4.14711138       1.27217986       4.14130999       0.54618837       0.94714609       0.04191407
Si       2.77218395       2.68451275      -0.09370992       0.17208614       0.41550802       0.82511934
Si       4.37688192       4.19382776       1.33399018      -2.46878518      -0.79974511       0.18142939
Si       5.52711619       0.05321644       0.12047787       1.03541269       0.37684067      -1.88747691
Si       6.95932325       1.40747268       1.36100542       0.43625780       0.64185424      -0.09987373
Si       5.57891350       2.79568120       2.69062912       0.81889687      -0.13561526       2.00718918
Si       7.07672509       4.33044388       4.30926137      -0.47939178      -0.99230701      -0.77328282
Si       8.33672277      -0.05295161       2.55804414       0.12574053       0.20918667       2.02228540
Si       9.74208709       1.22385094       4.24678386       0.62221788       0.77579117      -0.93658323
Si       8.54129304       2.77198897       0.06638825      -0.85721196       0.06568513      -0.67036001
Si       9.84701862       4.23383468       1.41242932       0.92406921      -0.66157782      -0.10379409
16
Lattice="10.89217843919334 0.0 0.0 0.0 5.44608921959667 0.0 0.0 0.0 5.44608921959667" Properties=species:S:1:pos:R:3:forces:R:3 config_type=bulk energy=-86.31062107345532 virial="2.790338561029564 -1.244641034631232 0.2234538677575177 -1.244641034631232 2.7157699726785127 2.417833903592171 0.2234538677575177 2.417833903592171 2.689565717764168" label_model=mpa-0 structure_key=8751ffe23c6a7e008fef9a91d6fa7a302428e69e86d44a0b1ab5b4fc7296293c pbc="T T T"
Si       0.01754250      -0.00877643      -0.01181657      -0.35338404       0.42580027       0.09265744
Si       1.37668771       1.37972333       1.39260915      -0.04316738      -0.19612854      -0.52321934
Si       0.00094471       2.74341338       2.70280541       0.01038279      -0.07618133      -0.02283497
Si       1.32550801       4.09413861       4.07171065       0.71390591      -0.06547807      -0.05426762
Si       2.76252932       0.01120638       2.67959781      -0.46694739      -0.06983928       0.65450633
Si       4.05475393       1.41230576       4.08283534       1.31152467      -0.96264166      -0.60576270
Si       2.75497909       2.65347655      -0.05942720      -0.92218695       1.16267541       0.84071827
Si       4.06100135       4.06344305       1.38765633       0.34865569       0.02285589      -0.76516366
Si       5.49740175       0.02372241       0.05666299      -0.70824475      -0.09908910      -0.37437308
Si       6.84718097       1.35878042       1.40114190      -0.01493421       0.33058857      -0.33244096
Si       5.48582701       2.76671106       2.69321428      -0.33840388      -0.37631634       0.38992001
Si       6.79985749       4.05947600       4.11969996       0.06749873       0.49021046      -0.09934425
Si       8.15568338       0.00317814       2.73591900       0.15543706      -0.69453589      -0.20494364
Si       9.50876661       1.37268601       3.99504917       0.44008761      -0.11532772       0.75782380
Si       8.19574595       2.72816715      -0.02481370      -0.20805804      -0.52722366      -0.02772589
Si       9.53081597       4.03172488       1.31909542       0.00783418       0.75063100       0.27445025
16
Lattice="11.052386561096888 0.0 0.0 0.0 5.526193280548444 0.0 0.0 0.0 5.526193280548444" Properties=species:S:1:pos:R:3:forces:R:3 config_type=bulk energy=-86.07226847273783 virial="-4.773053101893527 0.4457248546181867 -1.9190974189188927 0.4457248546181867 -4.800029135092635 -0.9124977632773188 -1.9190974189188927 -0.9124977632773188 -4.769908227456328" label_model=mpa-0 structure_key=307b7bb5d3c110601580ec9dcc2a6c2aadf35683c57d350e28846ab2cdf17151 pbc="T T T"
Si      -0.00888527      -0.06931167      -0.06161733      -0.37190103       0.57899576       1.20949279
Si       1.36638490       1.33334338       1.39189351      -0.27322319       0.17698606      -0.06017996
Si      -0.14107285       2.71278582       2.74378652       1.12375882       0.41979534       0.12591041
Si       1.33023435       4.21962774       4.13354796       0.25278585      -1.49296032      -0.52266950
Si       2.76151991      -0.00450198       2.81969967       0.15180280      -0.10614516      -0.88612642
Si       4.13527975       1.33489583       4.14156772      -0.09224656       0.54446800       0.34867709
Si       2.72497184       2.78109140       0.01314000       0.07409575      -0.18071935      -0.15035578
Si       4.20918740       4.13021448       1.34615963      -0.97948128      -0.09952557       0.51505715
Si       5.50008030      -0.10291739      -0.06060167       0.64446130       0.77806295       0.03262834
Si       6.89670141       1.36936887       1.35331354      -0.36526703      -0.43070760       0.30373733
Si       5.49724080       2.77508364       2.78316514       0.20986264      -0.59013236      -0.41276194
Si       6.92624144       4.13176772       4.04582719       0.02271031      -0.45351026       0.94080819
Si       8.29850113      -0.03485276       2.77148310      -0.08574383       0.94557265       0.04294727
Si       9.69161641       1.39433101       4.22430133      -0.49953832      -0.47933366      -0.39676102
Si       8.29557092       2.72133890       0.05616031      -0.46249533       0.41953065      -0.61836547
Si       9.58301490       4.13555516       1.40855777       0.65041908      -0.03037714      -0.47203847
16
Lattice="10.267019725080205 0.0 0.0 0.0 5.1335098625401026 0.0 0.0 0.0 5.1335098625401026" Properties=species:S:1:pos:R:3:forces:R:3 config_type=bulk energy=-79.18321483492018 virial="48.974983411204306 -10.390948726319376 4.172409764892206 -10.390948726319376 47.66039988795552 3.439040737497792 4.172409764892206 3.439040737497792 46.83304433143887" label_model=mpa-0 structure_key=a2f5dab7ed230a323be81bef846d79bdb74988cec31aa24efe72cda297a2f10b pbc="T T T"
Si      -0.05824911       0.06590732      -0.07913749       4.09429691      -3.79105826       3.26733484
Si       1.27823108       1.34089070       1.36212140       1.63503413      -2.27937105      -2.21827876
Si       0.03111478       2.61476717       2.43058653      -0.35348943      -2.94500524       3.92324495
Si       1.33152446       3.75377126       3.68428031      -1.68305467      -0.21264494       3.74773222
Si       2.53702410      -0.10457697       2.60777959       1.32360832       3.55530866      -0.55641137
Si       3.82057100       1.37498387       3.89551474       2.38762934      -2.10705501      -4.53730208
Si       2.63035838       2.49141094      -0.08481016      -2.83015263       2.95476178       3.16051037
Si       3.82285016       3.86559060       1.34245849       1.07512116      -0.42888688      -1.82283925
Si       5.11047286       0.16832457       0.01036513      -0.06263094      -2.20933412       0.27132509
Si       6.49353766       1.39273615       1.18529185       1.52895031      -1.92476180      -0.52357082
Si       5.30313298       2.56416168       2.42954369      -4.24055170      -1.43428466      -0.05123045
Si       6.21589187       3.80962474       3.74591666       2.41028130       2.85289503       3.30160654
Si       7.64359149       0.00032180       2.53701605       0.17084060      -0.35236234       0.17653627
Si       9.00211952       1.16371192       3.93893693      -2.80711215       3.91266217      -3.85023474
Si       7.74928901       2.67646755      -0.03991295       0.07639977       0.49504559      -1.50994799
Si       9.06015281       3.76205162       1.37524796      -2.72517032       3.91409108      -2.77847480
16
Lattice="11.23723679680025 0.0 0.0 0.0 5.618618398400125 0.0 0.0 0.0 5.618618398400125" Properties=species:S:1:pos:R:3:forces:R:3 config_type=bulk energy=-83.21903840887707 virial="-10.66943153799074 -3.5075547219681744 2.8933113012706797 -3.5075547219681744 -9.687424994667508 -8.304924612338496 2.8933113012706797 -8.304924612338496 -8.735653069076893" label_model=mpa-0 structure_key=ca5c3b2bf42d9edddcb55d86ec5bc0441a30460941736894e8ec01f85f101f9e pbc="T T T"
Si      -0.13869777       0.16073731       0.17672753       1.14565655      -1.49886215      -0.58425276
Si       1.39119293       1.44285872       1.40451170       0.86876354      -0.70392007      -0.12854912
Si       0.02747435       2.67271651       2.72611324      -0.29381430       1.24282397       1.44352337
Si       1.39081262       4.19669388       4.25135410      -1.63814033       1.46335201      -0.96574639
Si       2.79195201       0.07166167       2.89965026       0.80255079      -0.57023536      -0.89194762
Si       4.21185379       1.51675879       4.25125249      -0.35298059      -0.93993920       0.18832370
Si       2.60648912       2.79120305      -0.15060338       2.19854802      -0.23901980       1.89354423
Si       4.46076374       4.20622662       1.37038803      -4.07621435       0.20685365      -0.06897573
Si       5.61533944      -0.08426237       0.04018975       1.89822498       1.80537066      -1.28509631
Si       7.06616323       1.45709565       1.46034728      -0.02572218      -0.05632234      -0.25223338
Si       5.47746566       2.93451444       2.84042148       2.68103158      -1.49339078       1.01473233
Si       7.22193769       4.14652428       4.22231230      -3.78980753       2.31515878      -1.96871388
Si       8.58993906      -0.08970244       2.91701059      -0.61387558       1.08842488      -0.58817692
Si       9.86279964       1.45074822       4.32545563      -0.19606499       0.03933127      -0.95929649
Si       8.48785844       3.03011247      -0.16674291       1.60651618      -3.05818207       3.40950568
Si       9.89148027       4.15342498       1.45512076      -0.21467181       0.39855656      -0.25664072
16
Lattice="10.92428904134565 0.0 0.0 0.0 5.462144520672825 0.0 0.0 0.0 5.462144520672825" Properties=species:S:1:pos:R:3:forces:R:3 config_type=bulk energy=-83.49401402401496 virial="5.62769623704281 5.552245448040347 -3.691852990311597 5.552245448040347 5.288535306984448 -1.2824087728401259 -3.691852990311597 -1.2824087728401259 6.880295711694783" label_model=mpa-0 structure_key=340a07af8f327eb676686c93fdafda0627fc83d0326b02c6384ba11a960477ae pbc="T T T"
Si      -0.01701369       0.08145104      -0.02748447       1.37405594      -1.01513587       0.93085662
Si       1.54325014       1.49494201       1.33387744      -1.35276106      -4.27388601       1.22074563
Si       0.20501477       2.62808842       2.60614247      -2.41441433       1.86117321       1.69444341
Si       1.41966430       4.16315874       3.98214501      -2.41643132      -2.15111064       2.59533166
Si       2.71030212      -0.15656647       2.77797547       1.94558046       2.77493553      -2.14810774
Si       4.11638324       1.28158718       4.08688509      -1.38411119      -1.34787111       1.74243184
Si       2.63520364       2.61377032      -0.03068163       2.49670548       2.71285530      -2.77323541
Si       4.02155431       4.03647424       1.34212118       0.49200072      -0.25584432      -0.28348842
Si       5.55380787       0.07372240       0.13201150      -2.08090627      -1.70952061      -1.74357656
Si       6.82366750       1.27062477       1.39110112       0.70545947       3.44914024       0.99132507
Si       5.25138681       2.67225579       2.88184509       2.27965285       1.26582268      -2.19617013
Si       6.71354270       4.22817799       4.00561610       1.22736318      -0.93676328       0.85059933
Si       8.24431183       0.04860740       2.60592296      -0.27012502      -0.24236591       2.11237864
Si       9.64643182       1.33693255       4.09172806      -0.88360590       1.48641038      -0.79480291
Si       8.33091316       2.85460193       0.15621641      -2.78314942      -2.07724627      -2.98908813
Si       9.52688162       4.13594806       1.38843443       3.06468644       0.45940668       0.79035709
16
Lattice="10.379018344727887 0.0 0.0 0.0 5.189509172363944 0.0 0.0 0.0 5.189509172363944" Properties=species:S:1:pos:R:3:forces:R:3 config_type=bulk energy=-83.19497925280167 virial="34.89975574134474 -1.9076890446537527 2.719463807514601 -1.9076890446537527 36.57090601371671 -1.4271390128835173 2.719463807514601 -1.4271390128835173 36.400812818289836" label_model=mpa-0 structure_key=2e4e05d4509b128abcb2bc1075a9994784c4a532b376e11217c3a9f9b20bddbd pbc="T T T"
Si      -0.07449130       0.00492350      -0.02148986       1.71443623      -1.35013529       0.74681302
Si       1.34259051       1.26886643       1.29322093      -1.51370675       0.90952232      -0.85531917
Si      -0.03950546       2.59839613       2.60981846       1.31435518      -0.20199563       0.04135148
Si       1.42319091       3.88163222       3.85087871      -2.41645031       0.21651473       0.56270672
Si       2.56477652       0.03076643       2.58381329       1.01240380      -0.04134723      -0.02496527
Si       3.85748155       1.33763027       3.84813547       1.74020677      -1.35341497       0.28114702
Si       2.61535004       2.56875610      -0.07060491      -0.13093565       0.26193575       1.64811116
Si       3.84468570       3.87430741       1.34229327       0.62008349       0.55749108      -1.21074349
Si       5.31911952       0.01644607       0.02775507      -2.35997868      -0.45213538      -0.48648741
Si       6.51675919       1.32484039       1.28344440       0.17441084      -0.04627683       1.04555288
Si       5.19442574       2.59972148       2.56410071       0.47951433       0.34458850       0.61306945
Si       6.55909177       3.91036915       3.90324493      -0.39289166       0.03238792      -1.11924796
Si       7.87257564       0.05862745       2.58901574      -2.11715639      -0.58536435      -0.47693300
Si       9.09393084       1.22781822       3.86333869       0.09467767       2.14167045       0.99781505
Si       7.76128284       2.58718360       0.00093424       1.26973989      -0.13062036      -0.38623718
Si       9.03500929       3.88146637       1.36669771       0.51129122      -0.30282070      -1.37663330
16
Lattice="11.445703962628253 0.0 0.0 0.0 5.722851981314126 0.0 0.0 0.0 5.722851981314126" Properties=species:S:1:pos:R:3:forces:R:3 config_type=bulk energy=-84.62586610280616 virial="-21.691786901412083 0.3652045908473773 0.5153716957051259 0.3652045908473773 -21.823778177804435 -1.2951342671421326 0.5153716957051259 -1.2951342671421326 -21.945069008354913" label_model=mpa-0 structure_key=5b84558697f696324481b9541ff16459a9a52a24797a1f0e87763da11a0783e5 pbc="T T T"
Si      -0.02352469       0.07491310      -0.00613188       0.08630648      -0.82459989       0.40379969
Si       1.32378016       1.46731454       1.39343847       0.83312383      -0.18824960       0.69957186
Si      -0.04017241       2.84227867       2.87369564       0.03517575       0.22679383       0.30442685
Si       1.40130387       4.34673352       4.34139920      -0.13899577      -0.31955997      -0.38370786
Si       2.85883982      -0.05606693       2.89397138       0.03868676       0.41493250      -0.59284477
Si       4.35752252       1.36810434       4.26714059      -0.60770112       0.74263664       0.12348703
Si       2.77209463       2.91563980       0.03162159       0.67161530      -0.57496686      -0.49217199
Si       4.32065327       4.26798154       1.35442949      -0.38467789       0.25303219       0.40740363
Si       5.77651771       0.00451965      -0.00494578       0.01736050      -0.07442756      -0.05784084
Si       7.24668787       1.42288294       1.43979933      -0.64706540       0.04937453      -0.03874251
Si       5.74036120       2.87399152       2.75386276       0.05160203      -0.27555407       0.47760210
Si       7.15565421       4.32378002       4.22347565      -0.34046187      -0.61157954       0.58008501
Si       8.51989551       0.02038780       2.94879116       1.06339455      -0.04691095      -0.57240027
Si      10.03174260       1.39634798       4.39959061      -0.57630562       0.52948253      -0.89195941
Si       8.57403049       2.84344920       0.01595300       0.21673954       0.32986866      -0.23596339
Si      10.01562903       4.27775152       1.42893348      -0.31879708       0.36972756       0.26925486
16
Lattice="10.810066917231387 0.0 0.0 0.0 5.405033458615693 0.0 0.0 0.0 5.405033458615693" Properties=species:S:1:pos:R:3:forces:R:3 config_type=bulk energy=-86.50069602792009 virial="6.351863441312738 0.2428615936588083 -0.0779810881102016 0.2428615936588083 6.343353276183035 -0.32945030554334365 -0.0779810881102016 -0.32945030554334365 6.351582851681581" label_model=mpa-0 structure_key=92812c155de37fdf10b18c7ac86237cc8fd5fc86fff1dbc57f50c58548f5c000 pbc="T T T"
Si      -0.01813489       0.00132996      -0.02557220       0.10597609       0.00031675       0.20009668
Si       1.34303852       1.35360881       1.33330800      -0.08628943      -0.09245893       0.05884558
Si      -0.00160989       2.70515964       2.69276615       0.15350045       0.15123390      -0.05379715
Si       1.34800373       4.07491714       4.05096736       0.06543582      -0.21693300      -0.04499386
Si       2.69578279       0.01150360       2.69211858       0.03412367      -0.07577507      -0.01400192
Si       4.05498779       1.34594331       4.04846994      -0.06064680       0.16798488      -0.04125246
Si       2.69757653       2.69932742       0.00960207      -0.02245221       0.05616549      -0.28481680
Si       4.04253040       4.03844436       1.35003201       0.13947288       0.14287267       0.04903803
Si       5.39198081       0.01360564      -0.00162042       0.08048445      -0.21633450       0.05109284
Si       6.76891722       1.34737730       1.34765425      -0.10918855      -0.01241818      -0.11922189
Si       5.42079576       2.68788913       2.68762681      -0.10985716       0.15347664       0.12261102
Si       6.75614519       4.06885374       4.04139704      -0.01225340      -0.18146734       0.18919596
Si       8.09733457       0.01107420       2.69868147       0.27541714      -0.11128066      -0.02700118
Si       9.48098022       1.36355054       4.03726472      -0.28049742      -0.07167650      -0.01663998
Si       8.12095791       2.68785897       0.00354210      -0.16234327       0.13035317      -0.26202536
Si       9.45395367       4.04448103       1.33061370      -0.01088225       0.17594068       0.19287050
16
Lattice="11.125441172032373 0.0 0.0 0.0 5.562720586016186 0.0 0.0 0.0 5.562720586016186" Properties=species:S:1:pos:R:3:forces:R:3 config_type=bulk energy=-81.21199521737053 virial="0.7203687561478094 0.35013816744642456 0.1119268708776761 0.35013816744642456 -2.0567709696507666 -3.1884819597549154 0.1119268708776761 -3.1884819597549154 -0.3303344748804604" label_model=mpa-0 structure_key=204487f5a4fb2c950c1f4b5dcf039ba966288d6fa6f32b8d2d0b84500d8eee64 pbc="T T T"
Si      -0.06959361      -0.21660568      -0.03836398      -1.46827466       3.60432493       1.43178362
Si       1.33232039       1.34683400       1.31262000      -0.29449102       0.17372531       0.65157288
Si       0.01186553       2.79967304       2.96295587       1.85440315       2.10078284      -4.75549490
Si       1.14430496       4.28659932       4.15676317       3.47054262      -1.66592849      -0.13505314
Si       2.56038845       0.16155246       3.02121154       0.61433896      -1.03196016      -2.15952871
Si       4.01618368       1.46930847       4.19418194       1.69950750      -0.45836920      -0.26565855
Si       2.78088270       2.75489015       0.00609088      -1.28011642       1.13204292       0.42261857
Si       4.33169857       4.00949189       1.33868827      -3.39992354       2.61090514      -1.27132037
Si       5.48454937      -0.03741511       0.00845545       0.81716156       0.59570792      -0.16650905
Si       6.95413501       1.40054070       1.59453418      -3.11043407       2.40945496      -3.34329925
Si       5.42841964       2.96876360       2.78962626       0.81088005      -3.93099915       1.10046216
Si       6.79507539       3.87077722       4.22137206       1.46672550       3.30989542       0.66524426
Si       8.22832491       0.12211441       2.61234912       2.45152661      -2.70689182       3.74456239
Si       9.88907876       1.54699372       3.97930522      -4.09296490      -4.20523838       3.58011337
Si       8.32150232       2.73040758      -0.00740651       0.69109566      -0.31829877       0.54413353
Si       9.66421976       4.28359537       1.44273334      -0.22997699      -1.61915347      -0.04362680
16
Lattice="10.58336486795657 0.0 0.0 0.0 5.291682433978285 0.0 0.0 0.0 5.291682433978285" Properties=species:S:1:pos:R:3:forces:R:3 config_type=bulk energy=-81.7949989482058 virial="25.612424950318104 -0.12024196260628044 -2.392699398900122 -0.12024196260628044 26.56951239826291 11.06529478249487 -2.392699398900122 11.06529478249487 26.312246367906937" label_model=mpa-0 structure_key=79015443fd7fa24836a3fc0943fc062c889062fa0f2970ba3fc7e471993b3629 pbc="T T T"
Si       0.04812887       0.06231763       0.07882960      -2.61880963      -0.54491806      -1.01466437
Si       1.24046204       1.27946883       1.37290788       2.69354649       0.89650131      -0.11696531
Si       0.06044950       2.73760823       2.45989324      -1.31225063       0.91673047       2.83380545
Si       1.33565905       3.99759941       4.15375947      -1.21560884      -0.57105808      -1.87762707
Si       2.55183786      -0.01314968       2.74783664       0.66627537       0.85509435       0.34600044
Si       4.11624126       1.31220853       3.97944633      -2.89955009       0.22797186      -0.33485783
Si       2.70063423       2.71672061       0.00389180      -0.26083342      -2.71045582      -0.11992860
Si       3.81351600       4.01458812       1.34665910       1.47954454      -0.15445008       1.58409579
Si       5.14524350       0.13115627       0.16099146      -0.75505719      -4.34175833      -2.32325941
Si       6.45605813       1.27754088       1.19446318       4.52697551       2.20523066       2.93175844
Si       5.31194120       2.58547618       2.69513239      -0.40410178       0.94843749      -2.29524937
Si       6.57872752       3.96639999       3.82906853      -0.15274037       0.50864408       2.97816347
Si       8.01400052      -0.13736168       2.65786663      -2.56785708       4.76076814       2.29085898
Si       9.18649498       1.48520234       4.08301475       3.51338774      -3.18000112      -3.86837836
Si       8.01814067       2.64349090      -0.01451223      -3.96957441       2.34483860       2.08494488
Si       9.12109073       4.06827577       1.36710389       3.27665380      -2.16157546      -3.09869712
16
Lattice="10.79673844309481 0.0 0.0 0.0 5.398369221547405 0.0 0.0 0.0 5.398369221547405" Properties=species:S:1:pos:R:3:forces:R:3 config_type=bulk energy=-86.00548649068526 virial="8.155316149893913 0.6600061472578816 -0.010250262945978195 0.6600061472578816 7.672510548511473 3.597473611370453 -0.010250262945978195 3.597473611370453 8.415131631859701" label_model=mpa-0 structure_key=26c155cc12a78383dfb02fda16759bae0b060f16a6013fcface5e2c9a35ecf14 pbc="T T T"
Si      -0.00699496      -0.01330632       0.03918043      -0.02085201       0.57760484      -0.45597223
Si       1.29989137       1.33835781       1.36592155       0.81167407       0.48770326      -0.43507447
Si       0.00572265       2.65392839       2.71522753      -0.40079260       0.76011224      -0.01440916
Si       1.29375274       4.04089917       4.12460897       0.55365542      -0.01317734      -0.81077339
Si       2.66653242       0.01497139       2.68734166      -0.45998598      -0.81275902      -0.09503344
Si       4.02127612       1.23855813       4.01362778       0.42318311       1.15138109       0.73688419
Si       2.75454899       2.77701919       0.02012866      -0.77023094      -1.56935685      -0.52671042
Si       4.04142306       4.03568680       1.33948640       0.37501209       0.17717017       1.06957938
Si       5.39050836      -0.08611770       0.00730774       0.00393741       0.95822805       0.04203075
Si       6.69690469       1.36735297       1.35254747       0.79361400      -0.25262831      -0.28282464
Si       5.42123955       2.68377376       2.72978481      -0.39211082       0.21863143       0.25755735
Si       6.77943150       4.12228458       4.05521148       0.25119881      -0.61290970      -0.54503477
Si       8.20238676       0.00169094       2.66450255      -1.28906118       0.58593249       0.25448572
Si       9.44543237       1.34403883       4.06325438       0.07853586       0.15977437       0.28215083
Si       8.12507543       2.77316199       0.00746704      -0.59719409      -0.77002088      -0.18455261
Si       9.43792060       4.10261047       1.30711068       0.63941685      -1.04568587       0.70769688
16
Lattice="11.142404176836864 0.0 0.0 0.0 5.571202088418432 0.0 0.0 0.0 5.571202088418432" Properties=species:S:1:pos:R:3:forces:R:3 config_type=bulk energy=-86.05001758014446 virial="-9.302087845827522 -1.1380982425251345 -1.33972797291849 -1.1380982425251345 -9.20983921125137 2.415836738998129 -1.33972797291849 2.415836738998129 -9.021686370937225" label_model=mpa-0 structure_key=52359cfabb6e4f260fa11ff809655fe007f296edc40d933ab8c799b8fb660dd6 pbc="T T T"
Si       0.02878207      -0.05100696      -0.03441395      -0.37044564       0.56589322       0.40952662
Si       1.36758877       1.39732865       1.37071769       0.26184380      -0.01738697       0.07311287
Si      -0.01980970       2.78645441       2.79096822       0.19389563       0.03955279      -0.03195466
Si       1.37905086       4.21417816       4.18069023       0.29047626      -0.54923987      -0.40302084
Si       2.79855047      -0.02515344       2.77686409      -0.29843018       0.48370583      -0.05548498
Si       4.15923065       1.36698640       4.19568776       0.33332074       0.31639371      -0.29043411
Si       2.79319894       2.80740686      -0.04161291      -0.16952047      -0.11520395       0.38081934
Si       4.16313039       4.23107519       1.37365517       0.39272471      -0.51906446      -0.07389351
Si       5.61911649      -0.01678079      -0.04749176      -0.89950877       0.69620268       0.82233078
Si       6.91342102       1.36653329       1.43329371       0.59999306       0.32725734      -0.29842242
Si       5.60293394       2.85341286       2.83442216      -0.74144081      -0.53137494      -0.40947536
Si       6.89719186       4.24932532       4.18951507       1.44780509      -0.90095691      -0.19106671
Si       8.36803307      -0.05325224       2.74428354      -0.23443276       0.55103064       0.43619357
Si       9.76631841       1.39118108       4.18491828      -0.08590075      -0.38104940      -0.26917001
Si       8.41121584       2.75481652       0.00076133      -0.88305948       0.23513499       0.07455082
Si       9.75198415       4.17211890       1.38846027       0.16267958      -0.20089469      -0.17361138
16
Lattice="11.467208818014955 0.0 0.0 0.0 5.733604409007477 0.0 0.0 0.0 5.733604409007477" Properties=species:S:1:pos:R:3:forces:R:3 config_type=bulk energy=-83.11476171113966 virial="-20.469575402867196 2.5537882055309833 -0.8340907838683963 2.5537882055309833 -20.719986987821056 -0.4045045518369468 -0.8340907838683963 -0.4045045518369468 -22.588849278297737" label_model=mpa-0 structure_key=78d9ec6b398f69a6837c3d2764485d1df5a8fe8446c5dbe461a0569e1366086c pbc="T T T"
Si       0.07065692       0.04548458      -0.00155631      -0.02299373      -0.71375503      -1.33688226
Si       1.40317330       1.39583038       1.34201255       0.04059196       0.10615626       1.54413808
Si      -0.13846444       2.74977830       2.87319057       1.39240890       1.06425483      -0.85505523
Si       1.48645099       4.22559235       4.17953364      -1.19714769      -0.47742795       1.27277201
Si       2.76927190      -0.00630049       2.98982831       1.21160063       0.14448175      -1.68255924
Si       4.28346302       1.43935057       4.30809386       0.38118607      -0.56075731       0.65752244
Si       2.82047673       2.75647220       0.00807164       0.56497678       1.21372221      -0.61178392
Si       4.33928975       4.28629554       1.36473640      -0.67891645      -0.62245617       1.36967229
Si       5.77223441       0.06115754       0.26734741      -0.46681645      -0.56993926      -2.54325151
Si       7.13970373       1.41119552       1.57084418       1.01718446       0.76822379      -1.90529512
Si       5.83691973       2.70934604       2.83931210      -2.01727911       1.55087197       0.58223333
Si       7.09364599       4.28329217       4.12805517       0.87031217       0.82951766       1.20335475
Si       8.61982148       0.15891053       2.71182713       1.03963378      -1.92229702       1.41011098
Si      10.01750718       1.48358854       4.32255744      -0.50153353      -0.71102711       0.24693938
Si       8.59353802       2.91730440      -0.02929289      -0.23692495       0.11637051       0.05523344
Si      10.19639618       4.35139270       1.33291617      -1.39628282      -0.21593911       0.59285058
16
Lattice="10.991804387618807 0.0 0.0 0.0 5.495902193809403 0.0 0.0 0.0 5.495902193809403" Properties=species:S:1:pos:R:3:forces:R:3 config_type=bulk energy=-86.26770537275611 virial="-2.1374932296140967 -0.8057776741836429 1.0580367898330671 -0.8057776741836429 -2.344863696799068 1.3077987441358665 1.0580367898330671 1.3077987441358665 -2.0595595753021723" label_model=mpa-0 structure_key=a90e69a72df9f998cc84021ad247813ab3e41e72671ca5b4118d236916b26883 pbc="T T T"
Si      -0.00320003      -0.00574494       0.03337257      -0.00239068      -0.15379967      -0.00946200
Si       1.32895529       1.43592055       1.37104461       0.71382385      -0.67785474      -0.28431610
Si       0.07190042       2.75606282       2.73060362      -1.32110584      -0.05167152       0.51225655
Si       1.32772260       4.14319140       4.09262647       0.79500013       0.05773260       0.31526082
Si       2.75401114      -0.00424461       2.68383049      -0.33180161       0.55223949       0.66092155
Si       4.16779395       1.34668600       4.14008137      -0.59469311       0.45372122      -0.40431651
Si       2.75504103       2.74725409       0.01518262       0.04618261       0.26431456      -0.26416143
Si       4.14130554       4.17917065       1.40030388      -0.07413243      -0.61482579      -0.52790997
Si       5.49445259      -0.00459394      -0.02987052       0.05298800      -0.49049744      -0.08070085
Si       6.81964856       1.26749700       1.35121846       0.28794951       1.39247010       0.11720232
Si       5.50397719       2.79792350       2.75573088      -0.00102382      -0.69368587      -0.19462568
Si       6.88910783       4.13149213       4.07988468       0.09003065       0.05922150       0.25823190
Si       8.23882910       0.02091558       2.70128794       0.24103493      -0.21110054       0.47126674
Si       9.62876220       1.31454304       4.18325997      -0.06821165       0.75472811      -0.70571018
Si       8.23561521       2.77487134       0.00710904      -0.23593605      -0.64444587      -0.10415577
Si       9.58771738       4.10703662       1.36851818       0.40228550       0.00345387       0.24021862
16
Lattice="11.005592240527408 0.0 0.0 0.0 5.502796120263704 0.0 0.0 0.0 5.502796120263704" Properties=species:S:1:pos:R:3:forces:R:3 config_type=bulk energy=-84.971364797538 virial="-0.37517460558224 0.22270089960774853 0.18946471330768996 0.22270089960774853 -0.6567282187740381 0.33477565286026256 0.18946471330768996 0.33477565286026256 -0.8386795156394186" label_model=mpa-0 structure_key=071a1a51978f0b22dfc24c36420619a51b041a048a6867989a906bf804d32ed0 pbc="T T T"
Si      -0.14038394      -0.04946445       0.03795682       2.59466755       1.01801976      -1.13080089
Si       1.41425303       1.47561438       1.41603411      -0.09711857      -1.48170238      -1.14146556
Si       0.00424806       2.74246182       2.68706188      -1.06819949      -0.29693608       0.49146322
Si       1.33146800       3.96140324       4.09114516       0.14659923       2.16258858      -0.04622008
Si       2.85141776      -0.00951854       2.64980148      -2.51737840       0.35090111       1.41462611
Si       4.08316874       1.34858885       4.02087192       1.22256187      -0.70849381       1.02931831
Si       2.74168120       2.64237076      -0.18314669       0.06811213       0.90450722       1.73645337
Si       4.07576472       4.21430335       1.38444425       0.78311221      -2.30377315      -1.64675689
Si       5.53166013      -0.00430222       0.12418725      -0.22510331      -0.22100358      -2.11524784
Si       6.77062879       1.32965030       1.48925454       0.54118547       1.06815765      -0.39572804
Si       5.42010502       2.76136257       2.76388339       0.27291708       0.50866787      -0.03913030
Si       6.97586816       4.08241451       4.05041304      -1.04342895       0.59500314       0.64712714
Si       8.26794516       0.03670346       2.67701370       0.18728793      -0.82103051       0.25398467
Si       9.57245900       1.29482997       4.13016967      -0.07708565       1.29644635       0.20489492
Si       8.14983786       2.82307340       0.12742323       0.37561575      -1.41009407      -0.92043869
Si       9.66658777       4.12459793       1.28716216      -1.16374486      -0.66125811       1.65792054
16
Lattice="10.478945323245197 0.0 0.0 0.0 5.239472661622599 0.0 0.0 0.0 5.239472661622599" Properties=species:S:1:pos:R:3:forces:R:3 config_type=bulk energy=-83.93219690608105 virial="28.158540102640902 0.40066562649438797 3.3907795909940806 0.40066562649438797 28.462130243153318 2.3908801761891874 3.3907795909940806 2.3908801761891874 28.52172693824227" label_model=mpa-0 structure_key=e2a43eafd651556987b6ded1f9b062e8b503d8c57841732465675f57cf61f73f pbc="T T T"
Si       0.06848659       0.02274744       0.02970834      -0.98321118       0.33118260      -0.71837824
Si       1.28963145       1.36392271       1.33961503       1.01942804      -0.08881722       0.22306430
Si       0.00163901       2.67253802       2.67659845      -1.06172637      -1.26070981      -0.56463240
Si       1.27027004       3.82110511       4.00176583      -0.06898720       2.11262985      -0.46768853
Si       2.59386353      -0.15976069       2.58284446      -0.25598402       1.46124834       0.69650097
Si       4.07183850       1.28380210       3.82232753      -1.80726977      -0.79682752       0.68430426
Si       2.61851999       2.64025763      -0.08184516       1.43960745      -2.18830477       0.63989545
Si       3.91691771       3.87857944       1.26548414      -0.63470505       0.25533852      -0.63631144
Si       5.23158549      -0.01832230       0.07200056       0.36154373       0.50840723      -0.50969317
Si       6.53638337       1.35417079       1.32453463       0.73734613       0.37024469      -0.78293495
Si       5.20645709       2.68947789       2.55525114       1.18838405      -0.01858415       0.54182060
Si       6.53783886       3.98093284       3.90935993      -0.10558916      -0.52909415       0.37892203
Si       7.84341619       0.04548363       2.63517610      -1.04488502      -1.85930427      -2.22129262
Si       9.06940636       1.23627924       3.83587960       3.40974404       0.49094497       1.13437253
Si       7.95583142       2.59163542      -0.14566426      -1.42754854       0.89090414       1.67354713
Si       9.21579878       3.91747752       1.29065743      -0.76614713       0.32074155      -0.07149592
16
Lattice="11.380819268612294 0.0 0.0 0.0 5.690409634306147 0.0 0.0 0.0 5.690409634306147" Properties=species:S:1:pos:R:3:forces:R:3 config_type=bulk energy=-82.42671397145166 virial="-17.123752027619105 3.5642163405419103 1.5563630839687197 3.5642163405419103 -15.542278082912095 -2.6507947774657272 1.5563630839687197 -2.6507947774657272 -17.29019746245314" label_model=mpa-0 structure_key=0c7273dd13fc08c42acb0dbdfb648a3407cab42e8d8a8bee7499cbe476f78313 pbc="T T T"
Si       0.11619086       0.03815972      -0.04883117       0.88691356      -1.43529540       1.95191450
Si       1.54595986       1.43268176       1.46935964      -0.66796146      -0.29376770       0.45256147
Si      -0.05638942       2.72883886       2.99961993       2.54616704       0.43958624      -0.99104733
Si       1.40086971       4.24690257       4.26388557       0.36089543      -0.56045984       0.42648777
Si       2.84916574      -0.00123716       3.03512677       0.17819000      -0.63025868      -2.05190214
Si       4.21671383       1.39600940       4.33110427       1.67948506       0.02405428      -0.41599899
Si       2.90805223       2.74723286      -0.01967365      -0.96652479       0.70168249       0.06551311
Si       4.27271280       4.18416791       1.23163882       0.56875893       0.82254853       2.34869678
Si       5.73941983      -0.04028187      -0.00694982      -1.09799708      -0.27478437      -0.63994601
Si       7.10753200       1.39325309       1.14666326       0.27057391       0.75638573       2.61229827
Si       5.85028815       2.95556962       2.96540610      -1.58303271      -1.57704584      -1.85076440
Si       7.14425456       4.26368520       4.34106415       0.77484003       0.70019077       0.29213311
Si       8.35673701       0.19312428       2.99071075       1.64375746      -0.81064287      -0.82021863
Si      10.23757609       1.33400655       4.32592600      -3.61358776       0.32372138       0.31111473
Si       8.58282364       2.86750923       0.07549409       1.45372616      -0.22127227      -0.58489201
Si      10.25044948       4.08243944       1.55889431      -2.43420378       2.03535755      -1.10595023
16
Lattice="10.802767925071256 0.0 0.0 0.0 5.401383962535628 0.0 0.0 0.0 5.401383962535628" Properties=species:S:1:pos:R:3:forces:R:3 config_type=bulk energy=-83.56081996120726 virial="10.002116826149875 -1.3238720609779646 2.665414297045049 -1.3238720609779646 10.90175176850147 -8.437319667808685 2.665414297045049 -8.437319667808685 9.56245657851003" label_model=mpa-0 structure_key=2620d1df9c377c4a9ec1acf136ac95ac0b7e3882272e4ef0e0e5f4d5ac214fdc pbc="T T T"
Si      -0.09340190      -0.01116689      -0.04848587       1.87472357       1.83165488      -2.14854504
Si       1.21930211       1.09014262       1.53286798       0.16027792       2.04556623      -2.48799034
Si      -0.01728152       2.64781305       2.61153280       0.19784924       0.23480127       1.79449936
Si       1.42772499       4.15076911       4.05940293      -1.68086594      -1.34739062      -0.11132217
Si       2.67091492      -0.04389741       2.68620106       3.07692117       0.37869357       0.44549324
Si       4.11785856       1.54957415       4.24611639      -1.93871253      -0.07579786      -2.59794225
Si       2.68068898       2.82875554       0.01749182      -1.37145263      -1.63039787       1.34612761
Si       4.15396224       4.06243284       1.18794138      -0.89135054       0.30302346       2.10183487
Si       5.24759045      -0.03448860      -0.24447569       2.88833700      -0.30511051       1.21688962
Si       6.82421081       1.29533365       1.23494883      -1.84074191       0.30871790       0.14123492
Si       5.35819679       2.75729933       2.73434987       0.14090939      -1.55968173      -1.99538965
Si       6.70862489       3.87876888       4.04322291       1.08796384       1.87114582       0.20345825
Si       8.02441610      -0.07280619       2.59948483       0.33041929      -1.28786799       0.11587499
Si       9.29814495       1.23346687       3.96220364       0.51036411       1.71665346       0.57874321
Si       8.15979013       2.79926619       0.08679855       0.21598537      -0.95901836      -0.78081332
Si       9.68868072       4.10393131       1.25119789      -2.76062736      -1.52499165       2.17784670
16
Lattice="10.426615923744587 0.0 0.0 0.0 5.213307961872293 0.0 0.0 0.0 5.213307961872293" Properties=species:S:1:pos:R:3:forces:R:3 config_type=bulk energy=-80.59024825337933 virial="35.94664866171404 6.248994747862635 -6.380180244927228 6.248994747862635 35.278267156885704 4.060607688982198 -6.380180244927228 4.060607688982198 35.40602847758894" label_model=mpa-0 structure_key=00f4ff39f3b4dfa9331fb5469039748340c7a50e6fb1c100fa96d517ba735d61 pbc="T T T"
Si       0.16935292       0.16889588       0.10157858      -7.89734923      -2.31772460      -2.48384252
Si       1.34783140       1.28302068       1.13565482       3.53674939       3.42381938       6.25617572
Si      -0.06671994       2.69895953       2.53918788       1.76892781      -0.34075573       0.42958641
Si       1.18412222       4.01798797       4.13511739       0.33985424      -3.28243115      -2.40403930
Si       2.51230637      -0.23757773       2.67251978      -0.21295503       2.81872886      -0.40360240
Si       3.90557282       1.32065940       3.79013778      -1.86525935      -0.70785888       1.54545188
Si       2.59396667       2.72609377       0.09982584       1.72169255      -0.31816689      -1.42059204
Si       3.95957572       4.04490079       1.34650372      -1.59426884      -3.09682218       2.35961039
Si       5.03409828      -0.14394195      -0.01798692       3.52754419       3.78980372      -2.38812482
Si       6.57645600       1.38428070       1.33283944      -1.36562139      -1.09350717      -1.29926056
Si       5.20225400       2.61303091       2.62114165       0.58037985       0.76211822      -0.96838650
Si       6.51887619       3.95483002       3.85419735       0.41690335      -0.47687850       1.06875824
Si       7.86207857       0.07598720       2.60619196      -2.96698186      -0.50881542       0.17299579
Si       9.09635259       1.29997909       3.75782607       3.00463737       0.41897068       2.06505203
Si       7.91781396       2.52242048      -0.07078208      -0.84105248       1.83324392       0.42428555
Si       8.99361133       4.00879120       1.38068675       1.84679944      -0.90372425      -2.95406788
16
Lattice="11.253785853364962 0.0 0.0 0.0 5.626892926682481 0.0 0.0 0.0 5.626892926682481" Properties=species:S:1:pos:R:3:forces:R:3 config_type=bulk energy=-83.58066686530782 virial="-12.612052894773129 7.406750935216208 -2.682567758679009 7.406750935216208 -12.146292353345984 -0.9647600997375475 -2.682567758679009 -0.9647600997375475 -12.69437194741869" label_model=mpa-0 structure_key=acf8e6185e1bce6e3705ad251ba822c68f5ae0ae183d5c734cf00111e5bf360f pbc="T T T"
Si      -0.13010730       0.01134004       0.20213062       1.29822926       0.26660883      -1.75874708
Si       1.45931300       1.38405576       1.50094270      -2.13438668      -0.31456080       1.13983838
Si      -0.23071285       2.97835922       2.81278274       1.14883339      -1.22811405      -0.07896617
Si       1.37078992       4.26051994       4.12046832      -1.14723613      -0.54288150       1.81870500
Si       2.81601627      -0.02400920       2.90424326       0.56675201       0.32174830      -0.76689528
Si       4.06615300       1.46416324       4.28757425       1.63681180      -0.78070965       0.30123125
Si       2.63608691       2.68683943       0.11596848       1.23515619       2.18146514      -1.49700133
Si       4.26126236       4.30486365       1.33779821      -1.78648223      -1.93138823       1.43616877
Si       5.69996165      -0.14474492       0.16374532       1.14391732       2.44651857      -2.36157394
Si       7.25853388       1.54427490       1.42409570      -1.83215781      -1.46933215       0.48866751
Si       5.63499470       2.80020424       2.73505923      -0.78434035      -0.14776233       0.06167446
Si       6.97594202       4.23953276       3.98868868       0.66010453       0.15412081       1.87141696
Si       8.54740161       0.06019383       2.78410442      -1.27960311      -0.42762141      -0.11195304
Si       9.76025272       1.35351045       4.23199196       1.12326742       0.94818967       0.94741006
Si       8.47875216       2.84689077       0.04655978      -1.10462927      -0.05923668      -2.76967224
Si       9.65235031       4.23624933       1.30918138       1.25576366       0.58295546       1.27969668
16
Lattice="10.619565126933416 0.0 0.0 0.0 5.309782563466708 0.0 0.0 0.0 5.309782563466708" Properties=species:S:1:pos:R:3:forces:R:3 config_type=bulk energy=-80.85478718540928 virial="27.39465235451902 16.9051044911612 2.1104342104731826 16.9051044911612 26.413667142582977 -3.530675919955987 2.1104342104731826 -3.530675919955987 17.90273899216632" label_model=mpa-0 structure_key=ff4050976320e383a0eacfa6df252a6575d5dc9ab818ebe511858732aecaedb8 pbc="T T T"
Si       0.12277133      -0.02350919       0.16093175      -4.74158831      -0.58379662      -2.10459764
Si       1.38342238       1.35215330       0.99788099      -0.34388666      -0.72265798       5.95406021
Si       0.09347425       2.64026505       2.67918947       1.35019495       1.49497856      -1.44060614
Si       1.43216500       4.09014287       4.24388968      -0.26841723      -1.55939418      -2.74938395
Si       2.68364987      -0.11530379       2.70379312      -0.68624195       2.19298405      -0.14282292
Si       4.15474078       1.28827071       3.91493294      -2.37594641       1.24475265      -0.02374510
Si       2.63589254       2.73041592       0.21393451       3.70610958       0.85085332      -3.10660291
Si       3.99152388       4.11158656       1.29175177      -0.62091598      -1.09777334       0.96613277
Si       5.21735481       0.03958756       0.05711832       2.94834425       0.03578685      -1.06481197
Si       6.64906221       1.35649103       1.34882819      -1.47505696      -0.44340113       0.56181859
Si       5.24051910       2.78794769       2.59968552       1.10827081      -0.72023967       0.14247440
Si       6.69169110       3.85051727       4.03605185      -1.04661768       1.91490728      -0.27238916
Si       7.93021319       0.08467072       2.71686304       0.42527083      -2.01296531      -0.73283282
Si       9.28826990       1.47949956       3.83464784      -0.17051838      -1.32121665       2.78619751
Si       7.92971895       2.68329938       0.15025341      -2.06410190      -3.74842063      -3.90182723
Si       9.21859923       3.82759035       1.10590994       4.25510104       4.47560281       5.12893635
16
Lattice="11.454764117761757 0.0 0.0 0.0 5.727382058880878 0.0 0.0 0.0 5.727382058880878" Properties=species:S:1:pos:R:3:forces:R:3 config_type=bulk energy=-84.8015925813966 virial="-22.36210272120733 0.2714561817788105 0.2248866756179139 0.2714561817788105 -22.390770772801353 -0.8221303784724813 0.2248866756179139 -0.8221303784724813 -22.465284047130613" label_model=mpa-0 structure_key=f04ff199c55b3b6ccfcf52493bf41d538be4f21135fbb45f01deabc6de2191be pbc="T T T"
Si      -0.04227808      -0.01764845      -0.00083818       0.21068211       0.13710171       0.08629905
Si       1.45871753       1.41114433       1.43877603      -0.47966934       0.06564968      -0.14883993
Si      -0.02739556       2.88682871       2.88881616       0.23056870      -0.35955643      -0.40084448
Si       1.36304159       4.31863356       4.24548201       0.39008103      -0.17708683       0.34860319
Si       2.83977711      -0.03605807       2.81225068       0.24223529       0.25222930       0.45129875
Si       4.32378661       1.42785740       4.27560567      -0.41130267      -0.20244954      -0.09555426
Si       2.83770505       2.80878861      -0.04425942       0.15808760       0.55070937       0.13677984
Si       4.30662247       4.30501727       1.45169751      -0.44665190      -0.18041297      -0.61105149
Si       5.73362090       0.01295489       0.01480244      -0.00537451      -0.36510760      -0.38084057
Si       7.12678425       1.40100759       1.37282976       0.25822785       0.44507234       0.54476109
Si       5.66225426       2.87578317       2.81544806       0.76447189      -0.13759726       0.25613588
Si       7.20670227       4.30177587       4.27381716      -0.60704383      -0.00869187       0.13331151
Si       8.59070680       0.03767738       2.92665404       0.09515701      -0.19446042      -0.74036507
Si      10.02850125       1.47396623       4.30559192      -0.07247298      -0.18253301       0.10995422
Si       8.59339092       2.88071289      -0.01926260      -0.15857853      -0.27599357       0.07192635
Si      10.01166757       4.23078096       1.42646685      -0.16841772       0.63312710       0.23842590
16
Lattice="10.961451089128092 0.0 0.0 0.0 5.480725544564046 0.0 0.0 0.0 5.480725544564046" Properties=species:S:1:pos:R:3:forces:R:3 config_type=bulk energy=-84.69998053656352 virial="3.280593897330068 -3.4522014648985375 4.1302639884937 -3.4522014648985375 1.7899082091827887 -0.8401710470120618 4.1302639884937 -0.8401710470120618 2.7046159598047796" label_model=mpa-0 structure_key=fac30df265a2d565789bc4c2a2c1114c20b50276293d08e50a1d51ec2e1abf24 pbc="T T T"
Si       0.00872410      -0.11571214      -0.05011577       0.17755281       2.46513802       0.43717854
Si       1.32138378       1.32330246       1.48342572      -0.01007661       0.91585099      -2.29836445
Si      -0.01048357       2.77316126       2.73139822      -0.49942990      -0.06004529       0.01371720
Si       1.31249441       4.18456830       4.08668123       1.02351499      -1.67937052      -0.26620852
Si       2.60977309      -0.06764752       2.65920093       1.82329853       0.44642710       1.19639570
Si       4.14515195       1.39605336       4.14381026       0.28856880      -0.88169645      -1.47588058
Si       2.82735680       2.73811653      -0.11555613      -1.58893910       0.43903102       1.62548061
Si       4.10273874       4.06677944       1.44191260      -0.62288424       1.54321060      -2.20949682
Si       5.62606675       0.10596203       0.01204407      -1.99478398      -2.01961752      -0.72741174
Si       6.84242594       1.30571343       1.36001600       0.90016620       2.63802538       0.99540304
Si       5.43531383       2.88267495       2.70931355       1.22947281      -2.13899459       0.91324214
Si       6.89616246       4.11560948       4.08461687      -1.36291962       1.53710235      -1.04026172
Si       8.22381448       0.11875505       2.81787086      -0.05233473      -1.57882883      -1.59236580
Si       9.58800817       1.32016621       4.08708458       0.65165148       1.43358047       0.95444628
Si       8.12759068       2.84972042      -0.13863868       1.81576541      -2.10218518       2.03864610
Si       9.64652278       4.17613352       1.25609283      -1.77862284      -0.95762754       1.43548002
16
Lattice="10.666565472233822 0.0 0.0 0.0 5.333282736116911 0.0 0.0 0.0 5.333282736116911" Properties=species:S:1:pos:R:3:forces:R:3 config_type=bulk energy=-85.98839855725981 virial="14.57120315891502 1.3273489250976185 -0.3038233432932862 1.3273489250976185 14.633365259920675 -0.26495836345937807 -0.3038233432932862 -0.26495836345937807 14.63205654264784" label_model=mpa-0 structure_key=473a91e9b60115924e29138fc946130aeadada9a38cad7ace022fc1986e29145 pbc="T T T"
Si      -0.00630993      -0.00561818       0.00525811      -0.22594900      -0.07312231       0.07576120
Si       1.30468253       1.35945400       1.32482023       0.35523949      -0.20584860       0.03252416
Si      -0.02861569       2.68787082       2.64443681       0.34554705      -0.09653736       0.32199371
Si       1.32281711       4.00263412       4.00464364       0.30499452      -0.17851195       0.03050316
Si       2.67606455       0.01622551       2.67307915      -0.37718173      -0.13511217      -0.30036256
Si       3.99417353       1.36718443       3.95524134       0.38586873      -0.30310638       0.20072726
Si       2.71558280       2.63915419      -0.00329446      -0.58609038       0.43695015       0.08772338
Si       4.02453175       4.01649653       1.32230555      -0.45143685      -0.18263487       0.22761414
Si       5.29681391      -0.00313254      -0.00337212       0.43390953       0.38865285      -0.43449885
Si       6.69445087       1.30890710       1.31196215      -0.56846481       0.03248526       0.30546318
Si       5.34291719       2.69424152       2.65850028       0.47681107      -0.12707901      -0.12939512
Si       6.69920560       4.03816730       3.99049394      -0.47987446      -0.28781489       0.28530909
Si       8.01849465      -0.00289049       2.67243954      -0.10718971       0.11202214      -0.28190174
Si       9.34156220       1.31742054       3.96214619      -0.02962635       0.37405637       0.56914954
Si       7.97506296       2.66730382       0.01598139       0.31405614      -0.18425427      -0.61473172
Si       9.29576174       3.97069289       1.34743214       0.20938676       0.42985505      -0.37587884
16
Lattice="10.771667243387483 0.0 0.0 0.0 5.385833621693742 0.0 0.0 0.0 5.385833621693742" Properties=species:S:1:pos:R:3:forces:R:3 config_type=bulk energy=-84.40913461017294 virial="11.126166866599128 7.1433308972953204 4.891490432108769 7.1433308972953204 11.44028139545916 8.240790963914073 4.891490432108769 8.240790963914073 12.080877531680883" label_model=mpa-0 structure_key=54c87344010adcc8080d5b4d697190028645bf2cfd7127126dbaff06089fd445 pbc="T T T"
Si      -0.03232326       0.00908817       0.03534307      -0.28998884      -0.83695645      -1.16664641
Si       1.29264457       1.32357427       1.36387670       1.47774881       0.35472830       0.33893129
Si      -0.03962891       2.76080961       2.67678351      -0.29398049      -2.23289579      -0.56666885
Si       1.29134292       3.94811281       3.86951953       2.30540996       2.01217477       2.65025485
Si       2.89906742      -0.07078132       2.65256523      -4.04902821       0.01529411      -0.35366929
Si       4.08973748       1.19313164       3.89236833       0.67914591       2.88705193       1.93118812
Si       2.83589859       2.73870823       0.06202079      -2.66677578      -2.62602791      -2.61134729
Si       3.97990162       4.07602774       1.25614435       2.57732082      -0.19484177       0.73327105
Si       5.33205769      -0.01593357      -0.04145187       1.15153588       0.23479138       0.40140046
Si       6.66393739       1.39171627       1.37655117       0.01424228      -0.65285136       0.10541772
Si       5.38720779       2.81530320       2.76796653      -0.56071658      -0.67392696      -1.08102873
Si       6.77647452       4.08641945       4.01781958       0.24750612      -0.28803155       1.17656772
Si       8.13529705      -0.01676933       2.70773471      -0.71019100      -0.22360890      -1.39767971
Si       9.35979174       1.37618151       3.94814960       1.45434234      -0.39753706       0.77337920
Si       8.09344200       2.56944124      -0.01411726      -1.09758998       0.72650825      -0.18965700
Si       9.38249779       3.87159697       1.33676704      -0.23898123       1.89612900      -0.74371313
16
Lattice="11.33815555506152 0.0 0.0 0.0 5.66907777753076 0.0 0.0 0.0 5.66907777753076" Properties=species:S:1:pos:R:3:forces:R:3 config_type=bulk energy=-85.46806434987792 virial="-17.707982237939003 0.152397400825827 0.02434867426557737 0.152397400825827 -17.64436784168353 0.35495654656022324 0.02434867426557737 0.35495654656022324 -17.681085750292773" label_model=mpa-0 structure_key=be15c7cf6f49a6518624f6dcb115a90b6e19c6e726f3a6820fb6d76f759633fc pbc="T T T"
Si       0.04439004       0.01768071       0.06702641      -0.48458035      -0.16105101      -0.67597333
Si       1.40715660       1.43232033       1.40525289       0.29420953      -0.22448713       0.35472650
Si       0.00656796       2.82996648       2.78699958      -0.01938810       0.04061195       0.52921919
Si       1.41113049       4.25518243       4.27882636       0.10617449      -0.02352420      -0.17728682
Si       2.87654015      -0.00239733       2.83682453      -0.60975576      -0.17316060      -0.05156034
Si       4.23234379       1.36089081       4.22894581       0.34960684       0.52896752       0.11084499
Si       2.80047768       2.78369205       0.00900324       0.23708673       0.23064673      -0.23418308
Si       4.21192134       4.20460707       1.45156244       0.29017413       0.08984401      -0.33096148
Si       5.61918344      -0.01658941      -0.00000307       0.24461446      -0.07320896       0.09303725
Si       7.08601407       1.45995049       1.39663492      -0.13872584      -0.63655519       0.01742453
Si       5.72322093       2.83829409       2.80302650      -0.50942545      -0.10647460       0.39774855
Si       7.09679109       4.24722107       4.24790498      -0.13189440       0.13025184       0.02301060
Si       8.51036544      -0.00208471       2.81033359      -0.01849517      -0.10597992      -0.02956934
Si       9.90326761       1.40133265       4.21202338       0.23957611       0.03151282       0.34945435
Si       8.45893338       2.80195265      -0.00208541       0.57517269       0.31997420      -0.26360429
Si       9.96144545       4.22565564       1.41096638      -0.42434990       0.13263254      -0.11232728
16
Lattice="11.368416302312982 0.0 0.0 0.0 5.684208151156491 0.0 0.0 0.0 5.684208151156491" Properties=species:S:1:pos:R:3:forces:R:3 config_type=bulk energy=-85.02955579699736 virial="-18.815340460430534 -0.8640881973047332 -1.7280081107143375 -0.8640881973047332 -19.124349397944933 0.07378014063423866 -1.7280081107143375 0.07378014063423866 -18.75851844575258" label_model=mpa-0 structure_key=e96839ac9217d6af7d9ab9b88e8342cf582fabac6d134c55f169e6ad19a63382 pbc="T T T"
Si      -0.00858320      -0.00755994       0.04085790       0.06364234       0.33426163      -0.30326969
Si       1.39939144       1.41591148       1.41292478       0.41467967      -0.34180760       0.19692477
Si       0.02597724       2.83497333       2.77908603      -0.22433812       0.07661264       0.84463984
Si       1.36858136       4.31152707       4.26455312       0.19177949      -0.69920748      -0.00378425
Si       2.84621555      -0.08841640       2.87921554       0.06242766       1.18818900      -0.12959506
Si       4.31271080       1.41752959       4.26377153      -0.53872205      -0.07771763       0.14441031
Si       2.77041979       2.83043218      -0.00457743       0.87299172       0.46205433       0.18792768
Si       4.34840320       4.39303001       1.47388053      -0.71597456      -1.29465447      -0.47790709
Si       5.75217380      -0.05382404      -0.02719966      -0.37275582       0.85187155       0.30942296
Si       7.10956056       1.39873408       1.41832425       0.06871028       0.46164788      -0.07007240
Si       5.68943117       2.89520008       2.88385368       0.05111889      -0.36301575      -0.42369626
Si       7.07885044       4.27698297       4.27006928       0.92051273      -0.32103145      -0.15615592
Si       8.52975260       0.05355074       2.82131298       0.11881667      -0.35147272       0.48645786
Si       9.93756668       1.44740482       4.34166478       0.36864647      -0.24164986      -0.85529995
Si       8.58971273       2.82081430       0.00345935      -0.55794044       0.61787422       0.38286049
Si      10.02952714       4.30086458       1.45059952      -0.72359490      -0.30195428      -0.13286329
16
Lattice="11.069502062109583 0.0 0.0 0.0 5.534751031054792 0.0 0.0 0.0 5.534751031054792" Properties=species:S:1:pos:R:3:forces:R:3 config_type=bulk energy=-85.36425652933555 virial="-4.058421967285885 2.524332267153238 -1.9225932880255878 2.524332267153238 -5.130722253313899 -1.8534744986349012 -1.9225932880255878 -1.8534744986349012 -4.295587304695754" label_model=mpa-0 structure_key=1abf379a5f3389241d6f20c87ca6c2d88a29426cdd519b5930241169ccaf3ed4 pbc="T T T"
Si      -0.11476267       0.03323907      -0.01675816       0.83391880       0.44964910      -0.40290313
Si       1.36122331       1.42333231       1.45403344       0.62998461      -2.00821308      -1.13053243
Si       0.06376627       2.68480313       2.67771969      -1.62305919       1.49511897       1.07183284
Si       1.31511048       4.11393100       4.13499220       0.37920722       0.39465335       0.24375913
Si       2.80274975       0.04639231       2.79650863      -0.27754137      -0.31906553       0.02168079
Si       4.14523050       1.52462023       4.10624539      -0.76921200      -1.69166910       1.72625946
Si       2.68992750       2.72427007       0.09206975       0.72933941       1.12991034      -0.72671039
Si       4.21634042       4.23846651       1.36506836      -1.18379693      -1.39889639       0.96359899
Si       5.54227936      -0.06620034       0.04823457      -0.04088437       1.10767539      -1.64797724
Si       6.95328897       1.24015472       1.33495485      -0.17183944       1.04514416       0.76817115
Si       5.49931490       2.68744166       2.79859288       1.14366829       0.98471198      -1.49255920
Si       6.87443630       4.07481569       4.19383525      -0.76430491       0.98544247      -1.07525113
Si       8.29013576      -0.02888943       2.84051520       0.25229312      -0.50461112      -0.63484222
Si       9.60634305       1.47007826       4.09705017       0.04612171       0.08010349       0.55726336
Si       8.15728937       2.89978591       0.02309887       1.28008136      -1.86638896       0.40214544
Si       9.71251363       4.12156894       1.27505973      -0.46397632       0.11643492       1.35606459
16
Lattice="10.712660591401168 0.0 0.0 0.0 5.356330295700584 0.0 0.0 0.0 5.356330295700584" Properties=species:S:1:pos:R:3:forces:R:3 config_type=bulk energy=-82.26410032196232 virial="17.888225699580786 11.096184381240155 -10.080375369913323 11.096184381240155 15.985538118041477 -6.093303602212447 -10.080375369913323 -6.093303602212447 17.236956084909075" label_model=mpa-0 structure_key=6cd3202bb5cf8144f7d3c223f66d566cced251500524b166257e520eb1ded1d8 pbc="T T T"
Si       0.03749310      -0.14134406      -0.09143056       0.64495814       2.01304216      -0.48119862
Si       1.33670443       1.25038915       1.36156130      -0.46665622      -0.55599135       0.53138105
Si      -0.05548244       2.55306511       2.79974846      -0.37761756       0.32480207      -1.08046796
Si       1.38287853       4.03487305       3.87960841       0.46497535      -1.46273029       0.97335278
Si       2.83908802      -0.08218898       2.66504058      -1.33467310       1.80002097       0.61738436
Si       4.08002056       1.47113481       3.87625097      -0.09184072      -0.51385095       1.76106825
Si       2.65507066       2.63433985       0.15401121       0.85469616       1.12340517      -1.65802732
Si       4.13188046       4.20504437       1.30843238      -5.60801560      -7.82332276       4.91821826
Si       5.18543849      -0.11132903       0.20247754       6.85824287       6.84985331      -8.70468006
Si       6.72382589       1.31755756       1.18887214      -1.36707975      -0.19133528       1.77703129
Si       5.49909775       2.89313553       2.64577116      -1.30067452      -2.56698777      -1.78291500
Si       6.76478695       3.99245089       3.95797885      -0.20946029       2.15920027       1.68023623
Si       8.03071364      -0.07496102       2.54581486       0.03411791       0.61409412       0.05999921
Si       9.17488390       1.20193806       4.10726839       1.19641164       0.12998247      -0.63314208
Si       7.92749887       2.67274874      -0.05117926       1.48847500       0.50378120       0.25697216
Si       9.43379017       4.05898503       1.18479547      -0.78585932      -2.40396336       1.76478745
16
Lattice="10.527968864599938 0.0 0.0 0.0 5.263984432299969 0.0 0.0 0.0 5.263984432299969" Properties=species:S:1:pos:R:3:forces:R:3 config_type=bulk energy=-84.37165249401026 virial="25.72324106417938 0.6963805259965619 3.0878901912660917 0.6963805259965619 24.79919918097487 1.3251431635701958 3.0878901912660917 1.3251431635701958 25.62704470119658" label_model=mpa-0 structure_key=6f2a1e0c36faa52e693105b490b4983b8dad43b52e482f40c0a0c3038a967faa pbc="T T T"
Si       0.05683642      -0.00622854       0.01007451      -0.34324936       0.89557450       0.07241241
Si       1.42204231       1.36674027       1.34660646      -1.30228557       0.34358827      -1.13270027
Si      -0.03442287       2.60427397       2.60485046       0.72111275       1.21903560      -0.65833902
Si       1.31408843       3.90235194       3.99791071      -0.34453440       1.37432711      -2.16101157
Si       2.72117226       0.15860803       2.60525833      -1.95036606      -2.85999540       0.22517414
Si       3.94144778       1.31978372       3.85503176       2.42509580       1.56378581       1.56240519
Si       2.63544094       2.64780209      -0.11213857       0.89293307      -0.69085307       1.27873892
Si       3.85400990       4.03081268       1.28077214       0.29464014      -1.51281236       0.41202456
Si       5.19887287      -0.05394248      -0.00113464       0.67343268       0.56441080      -1.16046522
Si       6.57941652       1.21015536       1.29939371      -0.74583545       1.17653904      -0.42546816
Si       5.34958158       2.72070583       2.59140035      -1.31124607      -0.90093948      -0.98939084
Si       6.61617356       3.93208710       3.91034625       0.17399174       0.76111862       0.97297991
Si       7.89515924       0.03703083       2.61230860       0.64147459      -0.71548077       0.41467912
Si       9.21874442       1.36645340       3.89076656       0.07646546      -1.07262619       1.05639975
Si       7.88358598       2.59373883      -0.00593050      -0.32250507      -0.20786920      -0.11356694
Si       9.16825581       3.95849866       1.24084054       0.42087574       0.06219671       0.64612803
16
Lattice="10.77014801836284 0.0 0.0 0.0 5.38507400918142 0.0 0.0 0.0 5.38507400918142" Properties=species:S:1:pos:R:3:forces:R:3 config_type=bulk energy=-84.40108633287358 virial="12.064868411687458 -2.4693093273097495 2.298874072921853 -2.4693093273097495 14.150769513439315 6.621038256114388 2.298874072921853 6.621038256114388 11.395417454002493" label_model=mpa-0 structure_key=34f5d115a8b832fe0c9f0d84702510a13fe5b4c57b011be388ab69f805b996ab pbc="T T T"
Si      -0.00358967       0.02443755      -0.05799800      -1.68635559       0.57891595       1.94054262
Si       1.35501450       1.29044508       1.20791083      -0.32271156       1.16843432       1.39235873
Si      -0.00068208       2.74325134       2.68066605      -0.08365676      -0.46740391       0.01545481
Si       1.24075397       4.13671034       4.20171036       2.32180393      -2.20538323      -2.63784132
Si       2.62859537       0.06469843       2.67918939       0.38414020      -0.43873691       0.84722901
Si       4.08179847       1.35557112       4.13603093      -1.13210393       0.18021894      -0.70929507
Si       2.72196819       2.75993113       0.10399515      -1.13528268      -1.07793132      -1.86659609
Si       3.95490068       4.03151446       1.32503214       2.52283256       0.98644104       1.87323057
Si       5.44628985      -0.06030319      -0.14023554      -1.08780413       0.65699460       2.74420000
Si       6.74044748       1.31120619       1.42122043      -0.43836620       0.61177761      -2.46395014
Si       5.51512827       2.57329493       2.82382548      -2.82636426      -0.17495730      -2.28562618
Si       6.59346175       3.97314730       3.99034647       3.21746719       0.61160819       0.64286384
Si       7.96103328       0.07111327       2.72299364       1.24829317      -1.68318272       0.85402721
Si       9.40983299       1.28311074       4.10173287      -0.06253541       0.95288231      -1.53388688
Si       8.13376241       2.68602170      -0.03286441      -1.19804960       0.30452151       0.55421373
Si       9.35670141       4.11803846       1.31298693       0.27869307      -0.00419909       0.63307516
16
Lattice="11.072500946707454 0.0 0.0 0.0 5.536250473353727 0.0 0.0 0.0 5.536250473353727" Properties=species:S:1:pos:R:3:forces:R:3 config_type=bulk energy=-85.12100851872674 virial="-4.374347842085463 6.060018146172588 -2.1816220563692483 6.060018146172588 -3.446456064023726 -1.7379676300420739 -2.1816220563692483 -1.7379676300420739 -4.753542013749122" label_model=mpa-0 structure_key=b92a63819b79faee3d6fc108e34ed33b9b85d8dc2515a33340c6595a0e903964 pbc="T T T"
Si       0.04239408      -0.07426525       0.02614805      -1.13764794       0.22367999      -0.48355001
Si       1.35954480       1.43667860       1.19649865      -1.57664853      -2.43026367       3.25705211
Si       0.02174654       2.68373273       2.80090070       0.28279722       0.76055057      -1.07306718
Si       1.39266534       4.10226418       4.19696966      -0.28654533       0.31639262      -0.82108147
Si       2.74690800      -0.01706583       2.75544424      -0.40496467       0.48795827      -0.16555847
Si       4.12434730       1.31978899       4.14814906      -0.12081532       1.03822590       0.30604979
Si       2.56989659       2.75683813       0.11124896       3.78247477       1.70466800      -2.05018771
Si       4.15368338       4.21844647       1.41064264      -0.69902241      -1.66793937       0.56177663
Si       5.43137002      -0.08433863       0.03505397       1.24882869       0.84729985      -0.86824378
Si       6.95534345       1.34593040       1.31497864       0.02906589       0.07913732       0.32730257
Si       5.65479483       2.79951123       2.76974363      -0.89674003      -0.49924862      -0.24865392
Si       6.97352084       4.18150719       4.13944919      -0.58904960      -0.08810350       0.70235110
Si       8.34191721       0.02351057       2.90219980      -0.31552303      -0.16426176      -1.78661827
Si       9.71469799       1.41758772       4.08493216       0.40630386      -0.65897847       1.36531958
Si       8.37643440       2.81282124      -0.06297187      -0.83171745      -0.89187753      -0.09726480
Si       9.60921339       4.06225843       1.37926629       1.10920390       0.94276039       1.07437381
16
Lattice="10.83758779562968 0.0 0.0 0.0 5.41879389781484 0.0 0.0 0.0 5.41879389781484" Properties=species:S:1:pos:R:3:forces:R:3 config_type=bulk energy=-86.54924665539374 virial="4.8832022929499725 -0.04881403975762667 -0.09583792333362218 -0.04881403975762667 4.858698645667154 -0.12043672264064488 -0.09583792333362218 -0.12043672264064488 4.869557497670499" label_model=mpa-0 structure_key=52cf3e91d14fd8c0d5f487223fecc46537ec6f038d757a49f9f28a62409e549a pbc="T T T"
Si      -0.00110233       0.00675925       0.00297716      -0.05603966      -0.07145952      -0.05379158
Si       1.34574855       1.35906272       1.36139275       0.07478467      -0.08393227      -0.05412317
Si      -0.00679677       2.69763832       2.70692043      -0.00908979       0.08037969      -0.03400540
Si       1.33104523       4.06170061       4.04479643       0.14200594       0.11494880       0.09594502
Si       2.71020415       0.01369402       2.71182477       0.06955432      -0.02802015       0.08328104
Si       4.07289141       1.38651982       4.08018098      -0.00990038      -0.25209293      -0.11871836
Si       2.68188466       2.70689874      -0.00824413       0.08914124       0.18007712       0.07050590
Si       4.05805058       4.07266136       1.34423548      -0.05047633      -0.06878580       0.02978810
Si       5.43208769       0.00130324       0.00824118      -0.11172614       0.10634983      -0.07517444
Si       6.79052099       1.35206689       1.36155455      -0.09985459       0.02014339      -0.08718451
Si       5.42679849       2.70866665       2.69129500      -0.05596708       0.11072997       0.12730327
Si       6.77483403       4.06672956       4.07156827      -0.03036443      -0.00960607      -0.13121429
Si       8.12493328      -0.00275533       2.69988740       0.16470998      -0.07955693       0.13976992
Si       9.48400661       1.36266454       4.05604136      -0.15133926      -0.08199627       0.14698606
Si       8.12578858       2.72369001       0.01369537       0.02882162      -0.18387217      -0.20690895
Si       9.48806171       4.04501262       1.35012577       0.00573988       0.24669331       0.06754139
16
Lattice="10.50960674570197 0.0 0.0 0.0 5.254803372850985 0.0 0.0 0.0 5.254803372850985" Properties=species:S:1:pos:R:3:forces:R:3 config_type=bulk energy=-81.28581195290079 virial="30.51319433604335 -1.476878408625189 -2.8790292294518838 -1.476878408625189 28.20659489480821 0.7401760918859104 -2.8790292294518838 0.7401760918859104 30.61191394519664" label_model=mpa-0 structure_key=d18d829de961aaa060b7fef797018f0da6678a558fe0b715441f418603da7968 pbc="T T T"
Si      -0.07435212       0.02323704       0.07712572       0.29171680       1.99000330       0.01799300
Si       1.32419828       1.49595514       1.43614715       3.60101567      -4.32671707      -3.63351358
Si       0.06121961       2.56859835       2.52367900      -1.91782487       0.77520865       4.64072972
Si       1.07471331       3.94922951       3.97388612       2.49245514      -0.12283565      -0.21440065
Si       2.64787904      -0.09624877       2.56364730      -0.52159298      -0.07717719       0.45440018
Si       4.00161472       1.24392819       3.91994207      -1.53406755       1.58180056      -1.50738324
Si       2.70894879       2.66709273       0.00205857      -2.18684826      -1.06738173      -2.08592650
Si       4.02363817       3.72319339       1.29079584       0.59253602       2.58114389       0.77784901
Si       5.14880123       0.08333485       0.02603325       0.24074274      -3.95234690      -1.03185878
Si       6.44753181       1.12215969       1.27601539       2.76165816       1.82374909       2.23249066
Si       5.39233148       2.65782476       2.66203720       0.09623381      -1.28489293       0.31753288
Si       6.79513756       4.00493062       3.79435032      -3.99230505      -2.88458948       5.18033750
Si       7.95411305      -0.09833822       2.68300329       2.98672341       4.36432680      -3.08170247
Si       9.16484911       1.49676554       3.97778505       1.38857346      -2.44991365      -1.60133639
Si       7.87410378       2.51597413       0.04867208      -1.23261014       2.30138815       1.80456827
Si       9.38282264       3.90677981       1.46840628      -3.06640635       0.74823416      -2.26977962
16
Lattice="10.864730049597833 0.0 0.0 0.0 5.432365024798917 0.0 0.0 0.0 5.432365024798917" Properties=species:S:1:pos:R:3:forces:R:3 config_type=bulk energy=-86.05934870640814 virial="4.9364051873124435 -0.9626001558630457 -1.5918491944869881 -0.9626001558630457 4.934102526773829 1.1013287942500372 -1.5918491944869881 1.1013287942500372 4.474924832260433" label_model=mpa-0 structure_key=2d95f92e5ede2aa8331ec96220e8fc8f650e6bc26e602ac7b44d4c991598f33d pbc="T T T"
Si       0.04472351       0.01970383      -0.05606130      -0.63911469      -0.09272658       0.08572150
Si       1.35269989       1.35390151       1.32899228      -0.42567414      -0.58298344       0.79201546
Si       0.00110745       2.73831889       2.67148277       0.03736354      -0.15013473       0.24555848
Si       1.37735150       4.05562534       4.06287784      -0.11076129      -0.41586557       0.32552415
Si       2.68943656      -0.02868814       2.74072733       0.51536236       0.29079025      -0.50353064
Si       4.08355050       1.38405101       4.05442712      -0.72699160      -0.69397864       0.66794319
Si       2.67141759       2.65271537       0.08063638       0.75912265       0.68566793      -1.09079180
Si       4.08058985       4.03760699       1.33350760      -0.11410869       0.36540239       0.14541997
Si       5.46869214      -0.04477475      -0.07540724      -1.17722698       1.13660627       1.38554389
Si       6.76739323       1.30818243       1.40361374       0.08949704       0.72523766      -0.87009698
Si       5.37463285       2.68512983       2.74951861       1.02117610       0.78853001      -0.30987933
Si       6.77993470       4.12339675       4.16089439       1.18527680      -1.32825707      -1.71012408
Si       8.17176589       0.04784897       2.69942568      -0.62241518      -0.81489386       0.36448037
Si       9.46973298       1.37518264       4.01454999       1.01834804       0.02099797       0.19464604
Si       8.24657840       2.72345512      -0.03688836      -1.15358825       0.02585903       0.87298339
Si       9.50989640       4.11606898       1.38222614       0.34373428       0.03974838      -0.59541359
16
Lattice="10.229951124842415 0.0 0.0 0.0 5.114975562421208 0.0 0.0 0.0 5.114975562421208" Properties=species:S:1:pos:R:3:forces:R:3 config_type=bulk energy=-82.3169677153445 virial="46.506539933775066 0.5912305331117669 1.476487616831433 0.5912305331117669 46.45401777300416 1.9210603445656682 1.476487616831433 1.9210603445656682 46.51237489728337" label_model=mpa-0 structure_key=7aa35caba89c9e043af4d2be1e36a7df3e840fd3bc46a301bb6e5d9644bce548 pbc="T T T"
Si       0.00944790      -0.00372771       0.01610267      -0.28300982      -0.14977032      -0.24767929
Si       1.24731235       1.29623748       1.27971277       0.51924745      -0.42654010      -0.13751897
Si       0.01217543       2.54543550       2.54499723      -0.55828504       0.13679855       0.69512488
Si       1.27351655       3.83446494       3.82808205       0.22479755       0.05589420       0.09515924
Si       2.55171321       0.02158657       2.54895408      -0.26235769      -0.38439991      -0.27587898
Si       3.82229643       1.27982220       3.80762997       0.07928709       0.15117809       0.37425236
Si       2.54997140       2.54017218       0.01080771       0.04896392       0.16948398      -0.28711493
Si       3.83262988       3.82106983       1.28487812      -0.06203139       0.45530280      -0.24271345
Si       5.10415851       0.01846710      -0.01408594       0.13220784      -0.46046510      -0.00982125
Si       6.37767584       1.30204688       1.27455891       0.23905636      -0.16385244       0.01523349
Si       5.10744343       2.57287151       2.56753813      -0.03943138      -0.25367812      -0.17563758
Si       6.39967753       3.80206494       3.82614017      -0.03127791       0.69249176       0.37742365
Si       7.67055625       0.01077526       2.57110129      -0.15755806      -0.33762105      -0.57814889
Si       8.93422878       1.26958413       3.84814708       0.80285550      -0.12359615      -0.26763625
Si       7.69470690       2.54849114      -0.02138671      -0.46361615       0.08284650       0.42290312
Si       8.95458868       3.80469435       1.27317493      -0.18884828       0.55592732       0.24205285
16
Lattice="11.443141081716206 0.0 0.0 0.0 5.721570540858103 0.0 0.0 0.0 5.721570540858103" Properties=species:S:1:pos:R:3:forces:R:3 config_type=bulk energy=-82.57598370150778 virial="-18.444575566946956 -5.141822098476953 -4.439276540916722 -5.141822098476953 -19.96532702644473 -3.4177419925790753 -4.439276540916722 -3.4177419925790753 -20.53920165947735" label_model=mpa-0 structure_key=b6d0ae88352e28eedbe7ec2da60a86f243be44c8ad36daf48b33884872b44ba6 pbc="T T T"
Si      -0.05696570      -0.03200466      -0.02674046       0.71883298       1.22128028       0.37777139
Si       1.60659552       1.46746672       1.59263727      -1.27547881      -0.76518783      -0.86346686
Si      -0.11182506       2.85955870       2.84630730       2.21325177       0.60377352       0.06225530
Si       1.58950053       4.41843554       4.24297928      -2.11986525      -2.08670549       1.29229015
Si       2.99784709      -0.19346646       2.91272361      -0.23000474       2.31767855      -0.36026885
Si       4.18608080       1.35662069       4.34350807       1.04286070       0.52534753      -0.94824384
Si       2.94596099       2.80176397       0.01571293      -0.50463657       1.05757518       0.61594465
Si       4.37797923       4.32801011       1.55730822      -0.19873162      -0.29420553      -2.72180537
Si       5.67903299       0.00483302      -0.09820822       0.44025524       0.53416385       1.62035641
Si       7.22854582       1.42072239       1.59507961      -0.88800259       0.53634300      -2.42455085
Si       5.69843792       2.94219837       2.73605653       0.81323016      -1.36484556       2.14177689
Si       7.11967057       4.42525091       4.24230225      -0.80313835      -0.71648312      -0.36594473
Si       8.52777245      -0.10643400       2.79472277       0.79384205       1.28668819       0.90897189
Si       9.90524893       1.66374571       4.18470944      -0.19967946      -2.19073022       0.63217363
Si       8.49547269       3.02066290      -0.18514795       0.35404725      -0.63709963       1.95155979
Si       9.99077952       4.27155158       1.53519045      -0.15678277      -0.02759271      -1.91881959
