32
Lattice="7.19999864254807 -0.0019774524232903865 0.11778776404950937 -0.0019774524232903865 7.184850812777923 0.00655761947986451 0.11778776404950937 0.00655761947986451 7.309746528191875" Properties=species:S:1:pos:R:3:initial_magmoms:R:1:mace_force:R:3 mace_energy=-439.66120802728983 mace_virial="12.78475840136735 -1.1769029913151758 -9.00191602760772 -1.1769029913151758 11.130559097568108 0.15339429531859217 -9.00191602760772 0.15339429531859217 10.85426377553639" pbc="T T T"
Fe      -0.08286395      -0.01793665      -0.13587819       0.60000000      -0.02414056       0.22298752       1.21010271
Fe       0.01094218       1.79287898       1.87251494       0.60000000      -0.52328177      -0.27141658      -0.07498160
Co       1.73219743      -0.08758497       1.78102487       0.60000000       0.41524249       0.78017006       0.07748520
Cr       1.81279440       1.86330895       0.01252370       0.60000000       0.16234021      -0.92353509       0.72107755
Co       0.00861244       0.05047009       3.58054858       0.60000000      -0.37079638      -0.40248789       0.36181217
Fe       0.13863417       1.79750208       5.49498714       0.60000000      -1.45163702       0.02287283      -0.23813659
Mn       1.87175318       0.01073074       5.55216130       0.60000000       0.58384351       0.01572520       0.10694263
Cr       1.72528911       1.81777951       3.72215544       0.60000000       1.06406163      -0.07727510      -1.01437260
Cr       0.02159872       3.66460058       0.04115196       0.60000000      -0.96916955      -0.66558589      -0.80936362
Mn      -0.01938204       5.29360695       1.80404809       0.60000000      -0.82026668       0.88309101       1.02652716
Mn       1.84476961       3.63208208       1.79034937       0.60000000       0.14207972      -1.92955208       1.38731568
Mn       1.72393988       5.32175718       0.11562612       0.60000000       1.28881549       1.17261761      -1.71942213
Ni      -0.04975051       3.65696844       3.67527940       0.60000000       0.43899206      -0.32854737      -0.22383799
Mn       0.01431407       5.40002700       5.38969335       0.60000000      -0.56073470      -0.27831940       0.57376985
Mn       1.86684353       3.55070202       5.46348678       0.60000000       0.26595904       0.18216659       0.31208389
Mn       1.87837805       5.36678427       3.69623465       0.60000000      -0.63097503       0.38606419      -0.38336429
Ni       3.56615942      -0.04827211       0.06317319       0.60000000       0.33107075      -0.30613897       0.24700684
Co       3.71698973       1.71273422       1.90370765       0.60000000      -0.52690211       0.08163316      -0.03048741
Ni       5.55846821      -0.07615848       1.89219875       0.60000000      -1.00071288       0.48203921       0.08754343
Cr       5.33464268       1.76190990       0.04273452       0.60000000       0.22287742      -0.11516315       0.37290491
Mn       3.67706040      -0.00096956       3.67321053       0.60000000       0.15926894       0.95305600      -0.17824966
Cr       3.74654256       1.80746634       5.61443654       0.60000000      -0.09555184      -0.34042272      -0.51516243
Ni       5.52924996      -0.03089038       5.52463026       0.60000000      -0.58200110       0.04222257       0.23368696
Co       5.50625861       1.82490729       3.87136955       0.60000000      -0.06505101      -0.55186771      -0.87032495
Fe       3.59429886       3.60538508       0.10577866       0.60000000       1.07087461       0.36328566      -0.42406133
Co       3.49028954       5.29355321       1.95761345       0.60000000       1.23411477       1.05457958      -0.77356153
Cr       5.32198230       3.60262615       2.02780338       0.60000000       0.20354899      -0.25660340      -0.69597490
Ni       5.43859740       5.38427396       0.12342748       0.60000000      -0.88639458       0.00464702      -0.43604547
Fe       3.67847593       3.60194749       3.76663619       0.60000000       0.28325335      -0.72665894      -0.16322388
Co       3.65427755       5.34375017       5.48114799       0.60000000       0.55727816       0.22200217       0.91704831
Ni       5.49482280       3.54884977       5.50824656       0.60000000      -0.13138578       0.57484282       0.86575279
Fe       5.37769441       5.42761101       3.75451539       0.60000000       0.21537985      -0.27042891       0.04951030
32
Lattice="7.144254760694271 0.025761623375074108 0.012772616322736022 0.025761623375074108 7.116086967060595 -0.01446582118036907 0.012772616322736022 -0.01446582118036907 7.017730366099346" Properties=species:S:1:pos:R:3:initial_magmoms:R:1:mace_force:R:3 mace_energy=-438.38230713233924 mace_virial="28.66429208556946 -2.612991799867985 -0.2913922037490852 -2.612991799867985 26.58481494909851 1.1111608157132629 -0.2913922037490852 1.1111608157132629 30.354743562925773" pbc="T T T"
Cr      -0.00052534      -0.05944743       0.03265844       0.60000000       0.06790495       0.45195897      -0.46959031
Ni       0.01920092       1.75135960       1.75957378       0.60000000      -0.39121256       0.25261136       0.06166777
Cr       1.81826690       0.01292569       1.78208496       0.60000000      -0.09324980      -0.13352607      -0.04658925
Fe       1.76516640       1.75764744       0.04229196       0.60000000      -0.42696325      -0.52527487      -1.12279035
Ni       0.09959512      -0.04927307       3.47415681       0.60000000      -0.86951952       0.85433273       0.77730326
Co       0.05530525       1.81099085       5.23075951       0.60000000      -0.20171729      -0.80217271       0.41889902
Co       1.86790052       0.08557533       5.20195257       0.60000000      -0.81505899      -0.26088233       0.67104355
Co       1.69748148       1.79695237       3.52874744       0.60000000       0.61499387       0.09557077       0.13048428
Fe      -0.03983589       3.48619190      -0.04598334       0.60000000       0.51423491       0.27556870       0.56946020
Co       0.06280086       5.39407603       1.85799522       0.60000000      -0.79675263      -1.01948299      -1.11988104
Cr       1.77736949       3.54187413       1.69175069       0.60000000      -0.49348204       0.17078660       0.56962891
Ni       1.84954869       5.34575148       0.00286013       0.60000000      -0.89355243      -0.17912956      -0.52480684
Co       0.00251201       3.49743318       3.55370758       0.60000000       0.11058525       0.31669896      -0.73827009
Mn      -0.00879877       5.29556142       5.21626764       0.60000000       1.19953422       0.43262350       0.10568018
Co       1.77918147       3.48812044       5.28188971       0.60000000      -0.04064258       0.29874573      -0.25575334
Mn       1.81502720       5.37996915       3.48555812       0.60000000      -0.28027059      -0.67549877       0.05602696
Cr       3.62466232      -0.01882336      -0.03220974       0.60000000      -0.32444272       0.18778082      -0.17845059
Mn       3.49926311       1.70087500       1.79194970       0.60000000       0.50331521       0.24439003       0.36141099
Fe       5.40778206       0.06942824       1.79569747       0.60000000       0.25191136      -0.92163431      -0.61265576
Co       5.29318604       1.82108005      -0.02712084       0.60000000       0.92650960      -0.47859110       0.35366138
Cr       3.61085087      -0.01395357       3.59193292       0.60000000      -0.19457966       0.35453581      -0.09882049
Ni       3.54842798       1.84932580       5.29763913       0.60000000      -0.02244837      -0.52410039      -0.74940060
Fe       5.43397723       0.01560871       5.26070489       0.60000000      -0.33288122       0.27432569       0.36884487
Mn       5.33613704       1.76199186       3.57748981       0.60000000       0.57613206       0.14269934      -0.39186643
Mn       3.56514477       3.48054674      -0.00489318       0.60000000      -0.16584341       0.93917871       0.56806073
Cr       3.56514636       5.36225974       1.69926269       0.60000000       1.09299841       0.24316134       0.11809930
Fe       5.39861774       3.52880779       1.74033175       0.60000000       0.52553621       0.61355487       0.34882738
Ni       5.40696960       5.28294736      -0.09663131       0.60000000      -0.20164160       0.41526402       1.12688066
Fe       3.60556536       3.64794229       3.45037605       0.60000000      -0.47287149      -0.92044501      -0.05520597
Mn       3.53288537       5.29087286       5.23558484       0.60000000       0.17096963       0.89870445       0.55339990
Mn       5.32058778       3.59320248       5.24587803       0.60000000       0.47271836      -0.56915676      -0.36651506
Ni       5.40804470       5.41252783       3.51499585       0.60000000      -0.01021391      -0.45259752      -0.42878322
32
Lattice="6.906773923950081 0.00925370593117203 -0.014130559563056302 0.00925370593117203 6.978775232955929 0.039127727033148194 -0.014130559563056302 0.039127727033148194 7.071139207667795" Properties=species:S:1:pos:R:3:initial_magmoms:R:1:mace_force:R:3 mace_energy=-434.45426807404397 mace_virial="45.414467260379205 -0.6290773627503686 2.262262203237081 -0.6290773627503686 45.99238455412374 -2.7423001492631736 2.262262203237081 -2.7423001492631736 42.96891337836239" pbc="T T T"
Fe      -0.05846323      -0.06153909      -0.12691599       0.60000000      -0.05742623      -0.09838382       1.24031489
Ni      -0.01542185       1.65738501       1.76262894       0.60000000      -0.31954397       0.48918128      -0.08992003
Mn       1.74206235       0.11357936       1.76011982       0.60000000       0.18498367      -0.99649007      -0.34305258
Fe       1.68413455       1.68765014      -0.04643256       0.60000000       0.66218872       0.46880815       1.05240040
Mn       0.08156807      -0.05631334       3.55016329       0.60000000      -1.47099197       0.43376334       0.52420163
Mn       0.04500359       1.86258747       5.39541800       0.60000000      -0.46961993      -1.54724548      -1.71232187
Fe       1.77029564      -0.00917569       5.34869494       0.60000000      -0.56365559      -0.13945782      -0.42351772
Cr       1.72544078       1.79148270       3.49184547       0.60000000      -0.10954001      -0.29924969       0.91835672
Fe       0.10666871       3.42346412       0.02593100       0.60000000      -1.17235033       0.55957058       0.40380417
Cr      -0.06335313       5.21353015       1.84800243       0.60000000       0.15068294       1.02086040      -0.63911914
Fe       1.67724670       3.48860235       1.79422139       0.60000000       0.31818818      -0.47979456      -0.24149728
Cr       1.63251972       5.08364413       0.04068403       0.60000000       0.49173362       1.87134278       0.33983157
Fe      -0.02193041       3.50287354       3.55812697       0.60000000      -0.06156495      -0.18013288       0.43337112
Ni      -0.00945321       5.26154957       5.29869633       0.60000000      -0.12997895      -0.23843182       0.00547783
Co       1.77123462       3.55221091       5.35335668       0.60000000      -0.88719627      -0.52840775      -1.20407890
Cr       1.75974214       5.25379748       3.49445847       0.60000000      -0.10826671      -0.40467705       0.43455663
Mn       3.45247777       0.04945968       0.01097207       0.60000000       0.64133757      -0.97227103       0.71669085
Co       3.50076091       1.78674195       1.83820809       0.60000000       0.13254976      -0.08310481      -1.01406328
Ni       5.15859818       0.03021218       1.80935712       0.60000000       0.28114557      -0.50740225      -0.36374226
Ni       5.19521409       1.66090152       0.04221398       0.60000000      -0.02317106       0.91842312       0.07992766
Ni       3.47339658      -0.06839545       3.49412859       0.60000000      -0.31369089       1.11588169       0.39557198
Mn       3.45811495       1.71276209       5.30992690       0.60000000       0.19318888       0.97600866      -0.61867733
Co       5.11450032       0.05158307       5.28621097       0.60000000       0.65603229      -0.66828568      -0.19858567
Ni       5.14703183       1.70999933       3.56192103       0.60000000       0.78382939       0.40068392      -0.02826906
Cr       3.37922444       3.49143811      -0.08173738       0.60000000       1.05720612      -0.61539551       1.33382799
Co       3.43777113       5.34394575       1.77991943       0.60000000       0.29116037      -1.14723163      -0.43611463
Cr       5.33505083       3.56439130       1.79304803       0.60000000      -1.28736069      -0.95934609      -0.53724223
Ni       5.17584333       5.19475036      -0.04354795       0.60000000       0.31955251       0.37008642       0.42179693
Mn       3.46663823       3.48049822       3.47065117       0.60000000       0.66816770       0.78279958       0.90410807
Cr       3.36942853       5.28430965       5.38401422       0.60000000       1.15340117       0.04109172      -0.73821122
Co       5.36414953       3.47845361       5.42151383       0.60000000      -1.86516113       0.58876986      -1.04087407
Co       5.07749979       5.25766287       3.58587780       0.60000000       0.85417023      -0.17196355       0.42504881
48
Lattice="7.088117986982004 -0.025612692606902975 0.033346788247164666 -0.025612692606902975 7.107232291567191 -0.07513168435962624 0.050020182370747 -0.11269752653943935 10.766532973492723" Properties=species:S:1:pos:R:3:initial_magmoms:R:1:mace_force:R:3 mace_energy=-660.7180634544274 mace_virial="30.236349985751684 1.4409786642623186 -5.051249597021443 1.4409786642623186 36.74615253019009 8.0828566618993 -5.051249597021443 8.0828566618993 35.36658584084605" pbc="T T T"
Cr      -0.00512264       0.04171959       0.03389010       0.60000000      -0.16412810      -0.53215571      -0.44961961
Fe      -0.02374830       1.70929634       1.77630432       0.60000000       0.14558382       0.20394437       0.16734052
Co       1.78630637      -0.01429187       1.78799305       0.60000000       0.29562323      -0.47263563       0.31943016
Cr       1.73728729       1.72404086      -0.00283733       0.60000000       0.41850574       0.38268057       0.00149939
Co       0.00624697      -0.01778834       3.60291927       0.60000000       0.57114749      -0.19260254      -0.47857985
Ni      -0.01689380       1.73310512       5.41769583       0.60000000       0.65633933      -0.29711071      -0.43261350
Fe       1.83498082      -0.04068321       5.36304081       0.60000000      -0.68850097      -0.35223795       0.36053780
Cr       1.82386629       1.78067840       3.59474080       0.60000000      -0.46388793      -0.72695084      -0.17324901
Co       0.04318906      -0.08757784       7.18390235       0.60000000       0.03504550       0.04544555      -0.21099512
Mn       0.04385624       1.69221586       8.95195394       0.60000000      -0.55770744      -0.52717425       0.01718574
Mn       1.78707837      -0.11128269       8.96240802       0.60000000       0.80519839      -0.11048166       0.10060432
Fe       1.80009264       1.66569173       7.17256606       0.60000000       0.20556319      -0.19717732      -0.36696258
Fe       0.02592633       3.55012169      -0.06715916       0.60000000      -0.52502568       0.11006279       0.46919488
Fe      -0.02868982       5.29792027       1.70379412       0.60000000       0.33138078       0.25893619       0.39120438
Fe       1.74374533       3.50801993       1.74896445       0.60000000       0.24238677       0.31633241       0.12146440
Fe       1.74954556       5.33092548      -0.07232976       0.60000000       0.40971850       0.38697855       0.46651829
Fe      -0.01653657       3.50290418       3.52763176       0.60000000       0.00878564      -0.23478542      -0.13196007
Ni       0.02235074       5.27847649       5.28277764       0.60000000      -0.32845125       0.35707221       0.24406391
Mn       1.74565097       3.53129286       5.33797786       0.60000000       0.57651824      -0.12090865       0.32091794
Cr       1.79063251       5.28594300       3.58095674       0.60000000       0.07957576       0.19956927      -0.69984276
Cr       0.02955097       3.47821303       7.16094962       0.60000000      -0.01724226       0.02741064      -0.40642373
Co      -0.00270459       5.20045477       8.93536018       0.60000000      -0.21412373       0.50359397       0.28809163
Mn       1.80673729       3.49654113       8.87550890       0.60000000       0.43875576      -0.22649653       0.04196721
Cr       1.74129586       5.24654353       7.15164021       0.60000000       0.39794004       0.24714284      -0.52921980
Ni       3.58318984      -0.03147496      -0.00023407       0.60000000      -0.15159087      -0.22289841       0.06016687
Mn       3.57022305       1.76581174       1.79496048       0.60000000      -0.05149796      -0.86436415       0.24503091
Ni       5.36231962      -0.03997992       1.84504227       0.60000000      -0.60720514      -0.49603437      -0.09616007
Cr       5.30779775       1.75304329       0.01101709       0.60000000       0.01523873       0.17467818      -0.56027514
Co       3.59147455      -0.06640818       3.59696388       0.60000000      -0.43337254      -0.23708740      -0.38090021
Mn       3.57282776       1.70115267       5.38000314       0.60000000      -0.24018384       0.12325048      -0.04379922
Mn       5.36522184      -0.05470881       5.36535110       0.60000000       0.25214140      -0.09177180       0.67453757
Cr       5.33594078       1.67871753       3.60245807       0.60000000      -0.00323148       0.56934800       0.07200470
Ni       3.54876392      -0.13104611       7.17546858       0.60000000       0.22664464       0.41788504       0.09198815
Ni       3.54855934       1.69415081       8.98308920       0.60000000       0.29510122      -0.42891380      -0.23338854
Ni       5.35696127      -0.15256003       8.97343572       0.60000000      -0.22778193       0.12514915       0.08583464
Cr       5.35601613       1.67078260       7.19583210       0.60000000      -0.50755995      -0.51719226       0.32870750
Fe       3.53241479       3.56498386      -0.04748963       0.60000000       0.10373702      -0.12667753      -0.13351878
Co       3.52140914       5.25307066       1.72975504       0.60000000      -0.00119004       0.53448361      -0.00317519
Co       5.27986227       3.51030659       1.76615535       0.60000000       0.43453625       0.22052751      -0.09149714
Fe       5.30104598       5.31704924      -0.02237425       0.60000000      -0.46249473       0.32757272      -0.28893290
Co       3.59323958       3.49590961       3.56024950       0.60000000      -0.31153963       0.30836366      -0.31192847
Ni       3.56695138       5.26389209       5.33620346       0.60000000      -0.02988068       0.04252271       0.15311999
Mn       5.30891240       3.47533377       5.40653138       0.60000000       0.26437295      -0.51883460      -0.50917469
Mn       5.31181049       5.24474380       3.55753729       0.60000000      -0.34035434       0.32564017      -0.56928586
Co       3.60926547       3.42866218       7.15846448       0.60000000      -0.43758597       0.14132361       0.11080564
Ni       3.54600218       5.22228070       8.87839039       0.60000000       0.36916420       0.11850447       0.54039077
Fe       5.36403196       3.45910126       8.91880544       0.60000000      -0.68130212      -0.10112388       0.61208422
Mn       5.34364096       5.20215633       7.11315733       0.60000000      -0.13316602       1.12719674       0.81681073
48
Lattice="6.969607798275278 0.09332229034050478 0.023193747796591068 0.09332229034050478 7.212914644122512 -0.12006979680672702 0.0347906216948866 -0.18010469521009054 10.805250455508116" Properties=species:S:1:pos:R:3:initial_magmoms:R:1:mace_force:R:3 mace_energy=-657.1702198847213 mace_virial="37.70872022428145 -12.614065039826441 -1.541287579894539 -12.614065039826441 30.044963976796712 12.079568423454413 -1.541287579894539 12.079568423454413 26.634538505040258" pbc="T T T"
Co       0.07680813       0.02729262      -0.02816055       0.60000000      -0.57902502      -0.21491712      -0.21770554
Mn      -0.01711503       1.77217543       1.77792587       0.60000000       0.48403131      -0.05804081       0.11506163
Mn       1.71970293       0.01924544       1.81809238       0.60000000       0.31312953      -0.78786511      -0.39140589
Ni       1.76296369       1.85136314       0.00716992       0.60000000       0.04205980      -0.12926057      -0.35342047
Co       0.03840330      -0.09044757       3.61594759       0.60000000      -0.16306713      -0.17506626       0.22376899
Fe       0.07725276       1.74236103       5.37944312       0.60000000       0.71386426      -0.43056281      -0.39442164
Ni       1.79454321      -0.08633954       5.43002526       0.60000000      -0.64288365       0.16653399      -0.32060585
Fe       1.74061497       1.75691512       3.55301222       0.60000000       0.44799805       0.88534018       0.81478326
Mn      -0.00198995      -0.09593612       7.25900490       0.60000000       0.53751350      -0.43652839      -0.37194728
Ni       0.06764903       1.65564149       8.95107082       0.60000000       0.32112833       0.22015887       0.30164647
Fe       1.76425545      -0.11568497       8.96396515       0.60000000      -0.38213018      -0.04518444       0.97359432
Co       1.79639970       1.66260130       7.19155213       0.60000000      -0.17569488       0.88873284      -0.58514811
Mn       0.06482927       3.64891689      -0.07118516       0.60000000       0.31730672       0.13364455      -0.27100068
Co       0.08791180       5.38190541       1.75099059       0.60000000      -0.05574690       0.23557926       0.04780381
Ni       1.78221982       3.58925419       1.71267891       0.60000000       0.50352201      -0.00932375       0.54880065
Cr       1.83665649       5.44213254      -0.08108455       0.60000000      -0.08763379      -0.03439805      -0.14040982
Cr       0.04065181       3.53819438       3.55916855       0.60000000       0.59381496       0.51148417      -0.20288254
Cr       0.05847146       5.30610924       5.32632147       0.60000000       0.29898463       0.83538500      -0.42122735
Co       1.78014361       3.60882188       5.29994146       0.60000000       0.85487158      -0.57671170       0.03668579
Ni       1.84593122       5.33527333       3.50809789       0.60000000      -0.11939694      -0.01518703       0.17168774
Cr       0.11922892       3.57906366       7.08457491       0.60000000       0.20012806      -0.82457808       0.75041790
Co       0.11305945       5.32842305       8.91612255       0.60000000       0.33332424      -0.40478037       0.02042296
Co       1.83094288       3.44535275       8.94446253       0.60000000       0.17663482       0.10296851      -0.18680033
Fe       1.85352861       5.28307937       7.10709255       0.60000000       0.24702403      -0.22346189       0.47337816
Mn       3.52147490       0.07670448      -0.08068604       0.60000000      -0.66477751      -0.08708309       0.91449276
Ni       3.53063111       1.76758079       1.77862231       0.60000000      -0.37422151       0.58398822       0.03461653
Co       5.20671778       0.04276054       1.79134591       0.60000000       0.57611460      -0.47828138       0.18326401
Mn       5.30168005       1.84190566      -0.03576590       0.60000000      -0.18080650       0.16571931      -0.24479954
Mn       3.51044688      -0.02864072       3.64326688       0.60000000      -0.00627786      -0.24095014       0.31956119
Ni       3.52658059       1.80400987       5.34941573       0.60000000      -0.49375071      -0.08686218       0.24921380
Fe       5.26090037      -0.00091172       5.47975392       0.60000000       0.03055668      -0.52743755      -0.96916321
Cr       5.30956186       1.78079213       3.56911027       0.60000000      -0.34699342       0.17175501       0.45661318
Mn       3.45019786      -0.07210609       7.21527577       0.60000000       0.61961608      -0.14167647      -0.40127666
Cr       3.56258827       1.65537385       8.95381870       0.60000000      -0.43081180       0.42026037       0.15750280
Co       5.27415307      -0.07196236       9.09635105       0.60000000       0.47239710      -0.34744126      -0.81528313
Mn       5.31283293       1.74646168       7.12967836       0.60000000      -0.14315767       0.28328738       0.98004342
Fe       3.51616018       3.62877839      -0.04795360       0.60000000      -0.39534440       0.20226924       0.28614031
Co       3.55295659       5.43542411       1.75968779       0.60000000      -0.03653299      -0.57508997      -0.19987817
Fe       5.25676650       3.64157195       1.76133918       0.60000000      -0.62138204       0.47622088      -0.09353495
Cr       5.28983273       5.52501135      -0.07013569       0.60000000       0.40369532      -0.14787253       0.37378090
Ni       3.57129006       3.55086400       3.53539240       0.60000000      -0.56551337       0.13221685      -0.01770260
Ni       3.54219808       5.33821510       5.37684570       0.60000000       0.14525091      -0.04048941      -0.44292687
Mn       5.25425769       3.63897247       5.40402016       0.60000000      -0.23214278      -0.16856202      -0.91605853
Cr       5.26521728       5.35893667       3.49859720       0.60000000       0.15741874       0.44774474       0.04136656
Fe       3.60128817       3.50691859       7.19054702       0.60000000      -1.55060634       0.26085549      -0.02481738
Co       3.60602967       5.31795709       8.98787737       0.60000000      -0.51034441      -0.38824415      -0.73997541
Cr       5.32608705       3.52440681       8.94563601       0.60000000       0.14956695       0.08635248       0.19491635
Fe       5.29605402       5.36123618       7.23408339       0.60000000      -0.18171036       0.38535920       0.05282845
32
Lattice="7.375383040341775 0.03149845343632292 0.026619515105651848 0.03149845343632292 7.401598072493378 0.02346410112124464 0.026619515105651848 0.02346410112124464 7.358241749150151" Properties=species:S:1:pos:R:3:initial_magmoms:R:1:mace_force:R:3 mace_energy=-438.40565096637874 mace_virial="-10.581468151454924 -1.5718372630316315 -2.0919184592621836 -1.5718372630316315 -10.165356173207709 -0.579651979025831 -2.0919184592621836 -0.579651979025831 -8.529184800966219" pbc="T T T"
Mn       0.02868296       0.03746945       0.00728328       0.60000000       0.58751156       0.22317398       0.30239182
Co       0.04459824       1.86287301       1.89752887       0.60000000      -0.03143189       0.08627107      -0.36452762
Co       1.83577459       0.00159724       1.88652796       0.60000000       0.05399336       0.49050910      -0.32898293
Ni       1.86018992       1.80526838      -0.01696627       0.60000000      -0.01847710       0.55360061       0.62332813
Ni       0.00895145       0.03458010       3.64208445       0.60000000      -0.19482779      -0.00369080      -0.26293774
Ni      -0.01051305       1.89912094       5.49001093       0.60000000      -0.15171896       0.24884905       0.14633105
Cr       1.77871784       0.09221886       5.55885043       0.60000000       0.55427734      -0.18540685      -0.48484244
Cr       1.86613970       1.88903931       3.69851038       0.60000000      -0.14639455      -0.18480273      -0.34843879
Fe       0.05511232       3.69304830       0.00294647       0.60000000       0.29727228      -0.62680144      -0.20999935
Mn       0.08507081       5.55953093       1.87491025       0.60000000       0.52844599      -0.16915337       0.53419642
Ni       1.87559743       3.73705244       1.88591716       0.60000000      -0.21078536      -0.37793736      -0.42872385
Co       1.87537448       5.51857278       0.03821442       0.60000000       0.18771117      -0.22151485      -0.08276726
Ni       0.06383312       3.67884975       3.72833330       0.60000000      -0.29803110       0.10310567      -0.30829620
Cr       0.04788272       5.56404312       5.47840562       0.60000000       0.11200632      -0.31035669       0.03684461
Fe       1.86630563       3.70943000       5.52298413       0.60000000      -0.31429719      -0.01212051       0.39605063
Co       1.87540600       5.56339077       3.72063361       0.60000000      -0.19813457      -0.04653759       0.09760607
Fe       3.73075103       0.02787933       0.05471186       0.60000000      -1.01575462       0.36383734       0.01503002
Ni       3.70317187       1.91359619       1.80776292       0.60000000      -0.21417050      -0.20987542      -0.33006566
Mn       5.46195906      -0.00659706       1.82697463       0.60000000       0.76844572       0.64244268       0.50768296
Fe       5.52635861       1.87326794      -0.03975945       0.60000000       0.04553382       0.77831664       0.33697611
Cr       3.77040983      -0.03575087       3.70465854       0.60000000      -0.44010688       0.59971970       0.09380989
Cr       3.68444479       1.90592613       5.56484047       0.60000000       0.30538804       0.06086969      -0.00175501
Mn       5.59123045       0.04442616       5.55467011       0.60000000      -0.03441054       0.13675993      -0.52407449
Fe       5.50621896       1.91408751       3.63631444       0.60000000       0.86231845       0.05728979       0.70317008
Co       3.72208552       3.72069695      -0.00096112       0.60000000      -0.44734366      -0.19704201       0.31366975
Mn       3.65376536       5.57550976       1.92809159       0.60000000      -0.74337894      -0.57606676      -0.69643393
Mn       5.56761003       3.74021553       1.87044428       0.60000000       0.16187422      -0.40975997      -0.30691499
Co       5.57873335       5.57235708       0.07360912       0.60000000      -0.22021734      -0.25612714      -0.25338945
Cr       3.73299461       3.71973871       3.69365954       0.60000000      -0.31434740       0.00020355       0.28359364
Mn       3.71834082       5.58218320       5.53836071       0.60000000      -0.19954258      -0.31877504       0.24677231
Ni       5.58608269       3.75995319       5.54559304       0.60000000       0.05636724      -0.29011178       0.19652532
Fe       5.57307873       5.51972384       3.75648237       0.60000000       0.67222548       0.05113149       0.09817088
32
Lattice="6.904430437664342 0.08962189142278247 0.10664289234693679 0.08962189142278247 7.100932226409607 0.011936298509979357 0.10664289234693679 0.011936298509979357 7.010772858282763" Properties=species:S:1:pos:R:3:initial_magmoms:R:1:mace_force:R:3 mace_energy=-435.79550220666397 mace_virial="39.98779997990398 -7.399596575294945 -10.128119902901906 -7.399596575294945 37.13098307175743 -0.08929659747252848 -10.128119902901906 -0.08929659747252848 39.43535076003712" pbc="T T T"
Cr       0.03855048       0.01986236       0.03605472       0.60000000      -0.25750117      -0.89631821      -0.42238519
Fe       0.09913847       1.74219463       1.78803287       0.60000000      -0.38845894       0.99109067      -0.15630403
Cr       1.74257695       0.01608514       1.82654427       0.60000000       0.58544054      -0.13842707      -0.11898360
Cr       1.71960744       1.84105334       0.08592154       0.60000000       1.00355578      -0.26038013      -0.65896340
Fe       0.08678025       0.01322190       3.48603177       0.60000000      -0.25600449      -0.49508710       0.80808553
Mn       0.14662032       1.76409637       5.31519978       0.60000000      -0.16310352       0.70773180      -0.58888706
Co       1.80552111       0.04464184       5.24160691       0.60000000       0.25337951      -0.39904345       0.02030360
Co       1.82255445       1.76692836       3.54002515       0.60000000       0.11158612       0.58720729       0.33039325
Ni       0.08461488       3.56211997       0.00883839       0.60000000      -0.83028480       0.01525392       0.36518355
Ni       0.10730153       5.36086164       1.74943904       0.60000000      -0.25056492      -0.60012726       0.01821922
Mn       1.82838054       3.62405318       1.75158827       0.60000000      -0.80375683      -0.47277640       0.18237685
Fe       1.81902245       5.32456951       0.03694915       0.60000000      -0.64383455       0.23636460      -0.39321936
Ni       0.11468295       3.52501576       3.48796191       0.60000000       0.05393511       0.08218312       0.12702671
Co       0.17270056       5.27421088       5.30167754       0.60000000      -0.23407515       0.50887891      -0.22149467
Ni       1.78431823       3.61842986       5.34567670       0.60000000       1.23483795      -0.60136840      -1.05972858
Fe       1.80767851       5.31354929       3.51465837       0.60000000      -0.33057301       0.45373633       0.85242018
Cr       3.41604516       0.01521222       0.10730582       0.60000000       0.16850597       0.14639210      -0.67111840
Mn       3.51417239       1.80290024       1.82318702       0.60000000      -0.35439186      -0.00618761      -0.29483725
Fe       5.22853180       0.06762032       1.83028589       0.60000000      -0.08394950      -0.53097032      -0.41293660
Fe       5.18293695       1.78995107       0.06965267       0.60000000      -0.23860366       0.70013576      -0.16834019
Ni       3.52317645       0.03508776       3.54738279       0.60000000      -0.01717925       0.14114658       0.38217571
Co       3.58180601       1.76906030       5.29191174       0.60000000      -0.19886447       0.25735764       0.02054788
Co       5.28026857       0.02327911       5.36833388       0.60000000       0.06149592       0.49362116      -0.26046766
Fe       5.28726498       1.84975072       3.50126344       0.60000000      -0.17073626      -0.23293316       1.21918451
Ni       3.47959811       3.59761164       0.02843203       0.60000000       0.38449866      -0.36004556      -0.47980467
Cr       3.54068427       5.34498709       1.83375568       0.60000000       0.23941610       0.35686116      -0.30076063
Cr       5.18919602       3.64448674       1.76319081       0.60000000       0.81148115      -0.06905999       0.34211175
Co       5.27776757       5.33608337       0.04516731       0.60000000      -0.00448678       0.61887836       0.07535165
Mn       3.55654207       3.61237293       3.52982580       0.60000000      -0.35252976      -0.70363220       0.89748954
Mn       3.61125135       5.40529439       5.30484059       0.60000000      -0.22426830      -0.05249151       0.60358045
Ni       5.29754253       3.62385734       5.31767245       0.60000000       0.14936742      -0.35005473       0.17030689
Mn       5.32149636       5.40266042       3.60420803       0.60000000       0.74566700      -0.12793628      -0.20652597
32
Lattice="7.023600899521654 -0.050655948060692166 -0.10442160673836712 -0.050655948060692166 7.19412285500785 0.05794642944647742 -0.10442160673836712 0.05794642944647742 7.094806574246811" Properties=species:S:1:pos:R:3:initial_magmoms:R:1:mace_force:R:3 mace_energy=-438.52487988225573 mace_virial="30.61443191125516 6.039641047395812 8.695189761931433 6.039641047395812 24.936137395861156 -4.018650541015011 8.695189761931433 -4.018650541015011 28.860302204108216" pbc="T T T"
Fe      -0.03113079       0.09315967      -0.02909448       0.60000000       0.07517266      -1.21809917       0.78262050
Fe      -0.02078125       1.88672395       1.79384475       0.60000000      -0.59480095       0.43021678      -0.28352362
Co       1.73145892       0.06675846       1.74306480       0.60000000      -0.04887988      -0.82513233      -0.23695127
Mn       1.70455042       1.84745810      -0.04568461       0.60000000       0.67094836      -0.42296162       0.66150247
Cr      -0.03129619       0.04664723       3.49452268       0.60000000       0.11602839      -0.80219514      -0.04191348
Mn      -0.05796749       1.78555255       5.25826153       0.60000000      -0.45355985       1.05105456       0.00088727
Co       1.75347630       0.05499863       5.31987782       0.60000000      -1.15793515      -0.35903583      -0.35900871
Mn       1.73184796       1.77750050       3.47563911       0.60000000       0.57865241       0.72724202      -0.07288797
Ni      -0.00136737       3.53684847       0.01406217       0.60000000      -1.03609690       0.57309094       0.29237338
Fe      -0.06152453       5.32068392       1.87691039       0.60000000      -0.52803783       0.34562447      -0.54473980
Co       1.74056640       3.59299510       1.74888351       0.60000000      -0.08189818       0.05034097       0.17527260
Mn       1.66553826       5.39485112      -0.04057773       0.60000000      -0.19225001      -0.01124917       0.82249790
Ni      -0.08203264       3.63134559       3.58799959       0.60000000      -0.35162190      -0.19977776      -0.53292899
Cr      -0.11197328       5.40406944       5.36832884       0.60000000      -0.52181344       0.39961086      -0.11769125
Cr       1.54005864       3.65440067       5.31539389       0.60000000       0.74917819      -0.74702162       0.04009288
Mn       1.76854865       5.38578286       3.59641010       0.60000000      -1.46232682       0.23938511      -0.42712097
Cr       3.43209547      -0.04617421      -0.01279220       0.60000000       0.51248491       0.13951452      -0.40407518
Co       3.55755564       1.80252745       1.62000111       0.60000000      -0.72187851       0.97139454       0.55357311
Mn       5.08863570       0.06587630       1.71952259       0.60000000       1.36864204      -2.10985461      -1.05087920
Co       5.33492721       1.71237590      -0.07131660       0.60000000      -0.52415837       1.05226161      -0.29942006
Mn       3.45642093      -0.03014744       3.53529836       0.60000000      -0.42911119       0.26439694      -0.01836234
Ni       3.30342724       1.77162512       5.29653915       0.60000000       1.60859724       0.82064440       0.06317342
Fe       5.23830187       0.03958616       5.20707423       0.60000000      -0.97758164      -0.83485616       0.69335717
Fe       5.22364792       1.58755702       3.39985367       0.60000000      -0.37382550       2.86064307       0.86538150
Fe       3.44062787       3.57335373      -0.06492590       0.60000000       1.54138423      -0.06108848       0.13866490
Fe       3.45309236       5.30021045       1.81360503       0.60000000       0.13499624       0.14597923      -0.83492148
Ni       5.22081170       3.63125071       1.77020394       0.60000000      -0.14798905      -0.59634874      -0.62335032
Ni       5.25021126       5.40144211      -0.05480617       0.60000000       0.02696647      -0.39432772       0.49537654
Cr       3.48550172       3.67593140       3.61389064       0.60000000      -0.09710353      -1.49812214      -0.75222440
Cr       3.34451969       5.38419716       5.30085791       0.60000000       1.09701967       0.19312018       0.55578114
Ni       5.17340420       3.63530776       5.21466762       0.60000000       0.12768732      -0.81383834       0.95880335
Co       5.08907817       5.34337661       3.54509096       0.60000000       1.09311060       0.62938863      -0.49935909
32
Lattice="7.049885351210773 0.0017150417721916314 -0.10032231440574788 0.0017150417721916314 6.950706249110195 -0.018882964135580584 -0.10032231440574788 -0.018882964135580584 7.171030489795097" Properties=species:S:1:pos:R:3:initial_magmoms:R:1:mace_force:R:3 mace_energy=-435.99290520875553 mace_virial="28.766548716370462 -0.0923863223790877 7.307836197613037 -0.0923863223790877 29.010817174659056 2.4054631957012975 7.307836197613037 2.4054631957012975 24.365102592261653" pbc="T T T"
Cr      -0.03888737       0.00020993       0.00249792       0.60000000       0.23375698      -0.39209003       0.13613435
Co      -0.03611615       1.76127990       1.80414763       0.60000000       0.33252036      -0.16256208       0.29272020
Ni       1.70748070      -0.00930516       1.74463215       0.60000000       0.21404009      -0.13702452       0.32269401
Cr       1.75858650       1.68037305      -0.02574888       0.60000000       0.13170297       0.10759266       0.34962007
Fe      -0.04663212      -0.03068930       3.61763909       0.60000000       0.12453749      -0.24763290      -0.75171182
Cr      -0.06448449       1.72395002       5.37710726       0.60000000       0.15730487       0.06277908      -0.54573670
Cr       1.68287439      -0.02608203       5.34459514       0.60000000      -0.05073753       0.13235164      -0.06913255
Fe       1.72414946       1.70822717       3.53290736       0.60000000      -0.33452334       0.29192016      -0.17605739
Fe       0.02354051       3.46111583      -0.00580343       0.60000000       0.22442680       0.83374342      -0.09104617
Co      -0.04518076       5.20609456       1.76445071       0.60000000       0.58728424      -0.04381045       0.29379114
Fe       1.72412446       3.46927451       1.76404475       0.60000000      -0.28731889       0.45820497       0.56332578
Co       1.75853404       5.24157366      -0.03360980       0.60000000      -0.21727118      -0.37368252       0.17030125
Ni      -0.05865419       3.46828695       3.58319646       0.60000000       0.24733232       0.05656095       0.02700704
Co      -0.05740495       5.18586451       5.32996035       0.60000000       0.08947585      -0.13230035       0.16792458
Co       1.65458691       3.42257222       5.36482549       0.60000000       0.13149784       0.68278492      -0.47124555
Ni       1.67421984       5.23004161       3.54812404       0.60000000       0.19093972      -0.52690303      -0.10097393
Co       3.53839406      -0.03363898      -0.06013236       0.60000000      -0.13510682       0.19374156       0.53638335
Fe       3.52018373       1.71663887       1.76768552       0.60000000      -0.52683355      -0.56127623       0.28892185
Cr       5.27211342      -0.00527552       1.74325432       0.60000000      -0.14058129      -0.04937925      -0.01314956
Mn       5.28434002       1.74367530      -0.07195537       0.60000000       0.33113776      -0.30152013       0.32029682
Ni       3.44741599      -0.00252366       3.55635339       0.60000000       0.00629371      -0.27415789      -0.38387265
Mn       3.46927331       1.75470467       5.32983372       0.60000000      -0.36420979      -0.22344541      -0.65855453
Mn       5.19381294       0.02216698       5.26805878       0.60000000       0.48433204      -0.64646303       0.07738387
Ni       5.24958355       1.68292925       3.50036329       0.60000000      -0.07393305       0.49485909      -0.04395913
Mn       3.56899883       3.44400616      -0.02482014       0.60000000      -0.91673409       0.63836979      -0.49502083
Fe       3.49417031       5.19392097       1.72428465       0.60000000      -0.57731489       0.76830735       0.33230779
Mn       5.25855733       3.48205818       1.72162170       0.60000000       0.86146031      -0.01519012       0.64935603
Ni       5.30008309       5.22009267      -0.09367436       0.60000000       0.12271345      -0.13714756       0.01328280
Co       3.51127925       3.48944069       3.52400405       0.60000000      -0.69669861      -0.19257464      -0.15417167
Mn       3.45629489       5.20845923       5.34764608       0.60000000      -0.43827388      -0.52830605      -0.68049646
Cr       5.21717231       3.46644977       5.30652645       0.60000000       0.26369614      -0.03995147      -0.21653835
Ni       5.24664557       5.18918382       3.47252258       0.60000000       0.02508395       0.26420207       0.31021634
32
Lattice="7.259796051577754 0.008207298978187701 0.04112574684028385 0.008207298978187701 7.22936246822086 0.03481909632525001 0.04112574684028385 0.03481909632525001 7.338195039756335" Properties=species:S:1:pos:R:3:initial_magmoms:R:1:mace_force:R:3 mace_energy=-437.97692168281617 mace_virial="4.071284665059023 -0.8715735061998672 -1.3938940052837263 -0.8715735061998672 0.5139308657395385 -1.494942305719613 -1.3938940052837263 -1.494942305719613 0.5588121732732096" pbc="T T T"
Fe       0.00078086       0.02169701       0.05594019       0.60000000      -0.94318570       0.09990159      -0.13257164
Fe       0.01836046       1.81810388       1.82123128       0.60000000      -0.67355804       0.06513470      -0.26868263
Mn       1.81883287       0.00277809       1.80694603       0.60000000       0.69630621       0.00006941       0.44249387
Co       1.78892982       1.81313097       0.01943682       0.60000000       0.35161153      -0.20574343       0.18318050
Fe       0.00138479      -0.01608593       3.63160842       0.60000000       0.00096230       0.49906970       0.13215199
Cr       0.03525722       1.88535821       5.55121726       0.60000000       0.17026867      -0.46573945       0.03404463
Cr       1.87157597      -0.04938949       5.52959076       0.60000000       0.26230049       0.85155380      -0.56526018
Ni       1.86343076       1.83555799       3.61537078       0.60000000      -0.22017228      -0.25725836       0.60690297
Ni       0.03150225       3.62372230       0.01084950       0.60000000      -0.44401261      -0.12235329       0.79188657
Co       0.05122990       5.42337177       1.88387024       0.60000000      -0.47225408       0.02232481      -0.12683846
Fe       1.82409481       3.60239775       1.90244436       0.60000000      -0.23206694       0.13846757      -0.57565397
Cr       1.79430958       5.43697725      -0.00068709       0.60000000       0.19178982      -0.14341736       0.68149599
Mn       0.03305948       3.61479003       3.65972545       0.60000000       0.40424970      -0.18895852       0.16009071
Mn       0.00290555       5.38635673       5.51317515       0.60000000       0.39320642       0.79795901       0.44623774
Cr       1.85431562       3.67898573       5.63812921       0.60000000       0.31558487      -0.48687425      -1.17272953
Co       1.91630584       5.44111652       3.62133057       0.60000000      -0.25264817      -0.04107462       0.53392015
Co       3.60677549       0.02078505       0.03746214       0.60000000       0.49412640       0.62841159      -0.29173245
Fe       3.63346774       1.84565519       1.93701323       0.60000000       0.82466992      -0.50989769      -0.27732288
Ni       5.46643155       0.04657190       1.91753816       0.60000000       0.07496749       0.19290550      -0.22191386
Ni       5.43119763       1.78829549       0.05768221       0.60000000      -0.09978545      -0.09856843       0.18003407
Ni       3.68146538       0.06490005       3.68700900       0.60000000      -0.03558855       0.04906519       0.12850882
Co       3.71282880       1.86792743       5.49510208       0.60000000      -0.30619538      -0.60737335       0.20391189
Ni       5.47816857       0.06625137       5.55963989       0.60000000      -0.09753930       0.05963595      -0.05950012
Ni       5.50087532       1.88976952       3.80323967       0.60000000      -0.20539775      -0.79547228      -0.86466101
Mn       3.63454373       3.62112391       0.05751556       0.60000000       0.03574331      -0.85252399      -0.68807236
Mn       3.73420600       5.37354647       1.89638261       0.60000000      -0.86597018       1.43849193       0.14601052
Fe       5.44925762       3.67763021       1.88193835       0.60000000       0.89633705      -1.16221769      -0.14264221
Cr       5.36179726       5.41590045       0.03058885       0.60000000       0.73665394       0.65653788       0.00381563
Fe       3.64116776       3.61309645       3.72642177       0.60000000      -0.27918870      -0.29929246       0.52288592
Co       3.64928098       5.49734124       5.51552244       0.60000000       0.31580818      -0.08056917      -0.04469467
Cr       5.48060968       3.60535627       5.53156195       0.60000000      -0.56791362       0.04369671       0.38126567
Mn       5.45694435       5.44177957       3.78487795       0.60000000      -0.46910957       0.77410901      -0.14656168
48
Lattice="7.152474329345415 -0.005090325087273401 -0.058034334299871364 -0.005090325087273401 6.898243791241064 0.09360616544095174 -0.08705150144980704 0.1404092481614276 10.60719659779153" Properties=species:S:1:pos:R:3:initial_magmoms:R:1:mace_force:R:3 mace_energy=-650.1819419334399 mace_virial="53.62513579345694 1.2250349732741515 7.5625637908631935 1.2250349732741515 60.03026461547388 -13.682959771135108 7.5625637908631935 -13.682959771135108 55.9491840554122" pbc="T T T"
Cr      -0.16919631       0.11589006      -0.09833729       0.60000000       1.30761246      -1.24001759       0.44687107
Co      -0.11007356       1.66972205       1.72622056       0.60000000       1.18595503      -0.32876558       1.70125290
Fe       1.72201579       0.00951202       1.73219559       0.60000000       0.24123046      -0.78990705       0.24694517
Mn       1.91938104       1.70648101       0.07276951       0.60000000      -2.52201486      -0.53036791      -0.85202381
Co      -0.06190094      -0.02633022       3.44580117       0.60000000       0.41161826       1.03104342       0.12716392
Fe       0.09144155       1.78896903       5.34171079       0.60000000      -1.11430251       0.12465482      -0.91585261
Cr       1.81079596       0.09898711       5.25641198       0.60000000      -0.10175021      -0.50216679       0.28421823
Cr       1.90784041       1.63348296       3.46275712       0.60000000      -1.75958037       1.37448395       0.56970774
Fe      -0.03208601       0.10301190       7.11952514       0.60000000      -1.39985318      -0.61162989      -0.62179405
Ni       0.00235141       1.96533305       8.78554911       0.60000000      -0.72964879      -1.26172395       1.30675117
Mn       1.58825090       0.07079309       8.64680541       0.60000000       0.91950327      -0.23709637       2.81592122
Mn       1.73994618       1.78520003       7.00923667       0.60000000       0.62069293       1.19407277       0.63878169
Mn      -0.09376055       3.32643344       0.18244129       0.60000000       2.26918157       1.28439101      -2.28810075
Mn      -0.01605503       5.11724289       1.86452665       0.60000000       0.33232148       1.22746829      -0.38695939
Cr       1.75233514       3.36354625       1.73522706       0.60000000      -0.25826284       1.54761494       1.18168978
Ni       1.93789549       5.19254233       0.08437980       0.60000000      -1.36357442       0.19831639      -0.32252877
Cr      -0.10107422       3.42889197       3.56653770       0.60000000       0.60812727      -0.62520279       0.24162194
Mn       0.04668310       5.30286674       5.28065286       0.60000000      -0.76767632      -0.91732567       1.84122583
Co       1.77392296       3.53369082       5.34201064       0.60000000       0.28886856      -1.19743716       0.83298502
Ni       1.70182186       5.09090679       3.77927059       0.60000000       1.06894212       1.35363207      -2.93314099
Ni       0.06624288       3.45552992       7.19813086       0.60000000      -0.95651969       1.40713174      -1.83567483
Ni      -0.16401774       5.16342113       8.82067474       0.60000000       0.91956312       0.28101545       0.83898918
Co       1.90093675       3.40233824       8.88100860       0.60000000      -1.43281291       1.27214340      -0.16390814
Co       1.71433499       5.19938529       7.17811788       0.60000000       0.57913734      -0.43431913      -0.25097912
Mn       3.59203738       0.10200850      -0.13827497       0.60000000       0.65723237      -2.09829313       1.36921205
Fe       3.52059272       1.83568773       1.83197079       0.60000000       1.53481386      -0.86483214      -0.12880541
Cr       5.29001670       0.14778265       1.77501566       0.60000000      -0.06608812      -1.02792997      -0.47668051
Co       5.39648409       1.88515323       0.06795653       0.60000000      -0.76793640      -1.25571193      -0.54810871
Ni       3.50519763       0.00275908       3.43722294       0.60000000       0.59199734      -0.36021616       1.21711728
Co       3.53096724       1.84197272       5.34457756       0.60000000       0.02357579       0.09074830      -0.95704715
Cr       5.41725552       0.04506773       5.24631386       0.60000000      -0.88878786       0.16679224      -0.41649871
Ni       5.22852740       1.72932955       3.54288412       0.60000000       0.90553270       0.19255122       0.10877368
Mn       3.53175418       0.19831350       7.05681290       0.60000000       0.63743306      -1.90197980       0.21377806
Mn       3.69244527       1.87953663       9.05424527       0.60000000      -0.84475880       0.05437049      -2.67264038
Co       5.33753535       0.07695174       8.80382603       0.60000000      -0.11796727       0.35055593      -0.51402390
Fe       5.32023305       1.74479369       6.94215617       0.60000000       0.85530493       1.05392379       1.10658988
Cr       3.47789402       3.39604217       0.08427741       0.60000000       1.27866083       1.27603950       0.47141580
Ni       3.64185122       5.29011888       1.92842256       0.60000000      -0.80242702      -0.82296169      -1.53591928
Fe       5.43529878       3.48253326       1.79544037       0.60000000      -1.58039815      -0.14638246       0.67360526
Fe       5.32876979       5.06336637      -0.10404178       0.60000000       0.06485830       0.72783759       1.07245962
Fe       3.63635400       3.56647986       3.53642980       0.60000000      -1.00069792      -0.69476293       0.06027595
Fe       3.50050323       5.16518102       5.35900796       0.60000000      -0.02073208       0.62260506       0.55149345
Cr       5.24193817       3.53725995       5.30707413       0.60000000       0.96662120      -0.42214825       0.69572475
Fe       5.32286105       5.20745908       3.62216086       0.60000000      -0.00851462       0.64217053      -0.58715850
Ni       3.57174256       3.45689248       7.19349194       0.60000000      -0.33186557       0.53889850      -0.77927982
Co       3.52609506       5.21413294       8.96507225       0.60000000      -0.22637231       0.43399328      -1.45679383
Co       5.27708039       3.54250119       8.80962621       0.60000000       0.65734113       0.16690396      -0.33298252
Ni       5.28287336       5.27563333       7.07932697       0.60000000       0.13641683      -0.34218028       0.36233057
32
Lattice="7.2625279744053595 0.028064372552535286 -0.10069848207687418 0.028064372552535286 7.263697150646377 -0.04154715578124335 -0.10069848207687418 -0.04154715578124335 7.0697583268090405" Properties=species:S:1:pos:R:3:initial_magmoms:R:1:mace_force:R:3 mace_energy=-436.5683809403239 mace_virial="9.237907858525553 -0.5717995788670357 5.11862371529641 -0.5717995788670357 12.547367889629678 6.7729477827296645 5.11862371529641 6.7729477827296645 12.64427065287809" pbc="T T T"
Mn       0.09027628      -0.06408229       0.10531278       0.60000000      -0.26309990       0.74530134      -1.47743924
Mn      -0.01006348       1.82781871       1.74784750       0.60000000       0.41278764       0.04884371       0.58019820
Cr       1.83405446      -0.02887277       1.85935170       0.60000000      -0.03301025       0.55001659      -0.95140928
Ni       1.84336621       1.81483137       0.00331197       0.60000000      -0.12376491       0.15720127      -0.45089974
Ni      -0.03773764      -0.03872974       3.45823355       0.60000000      -0.60582619       0.65143719       1.04459013
Co       0.00202302       1.81832611       5.29454722       0.60000000      -0.33859671      -0.42456135      -0.29279903
Cr       1.87360811      -0.01181166       5.32619945       0.60000000      -1.10921426       0.53123396       0.03576423
Co       1.74616225       1.77773698       3.52041931       0.60000000      -0.26274639       0.83033280       0.07907262
Ni      -0.01153156       3.57743495      -0.04421089       0.60000000       0.66650437       0.77023255       0.04414828
Ni      -0.09431915       5.54388839       1.76870762       0.60000000       0.29004706      -1.45183823      -0.42790450
Co       1.85360113       3.53649369       1.68355882       0.60000000      -0.35199970       1.00355218       0.23036135
Co       1.75071371       5.50530597      -0.03221977       0.60000000       0.44089285      -1.28324488       0.20506228
Mn      -0.14191521       3.72703159       3.51725804       0.60000000       1.15949302      -1.26308979      -0.53215305
Fe      -0.02224206       5.46928002       5.24838700       0.60000000      -0.39816811       0.08608384       0.57534313
Co       1.70829175       3.55000391       5.22457113       0.60000000      -0.15949441       0.19228905       0.32118055
Mn       1.77058207       5.52996313       3.47746269       0.60000000       0.05070244      -1.50100542      -0.26919988
Fe       3.68949346       0.05132613      -0.02134205       0.60000000      -0.67656881      -0.13801809      -0.44192485
Cr       3.64535200       1.86741851       1.73654346       0.60000000      -0.64461480      -0.03854034       0.14951004
Mn       5.28087085      -0.05531397       1.70366181       0.60000000       1.10461534       0.78169568       0.96359775
Cr       5.45039397       1.84861394      -0.12490799       0.60000000       0.45943548      -0.42264638      -0.04840197
Cr       3.50435103       0.01451445       3.50235417       0.60000000       1.41180381       0.05898266       0.18210573
Mn       3.62286893       1.82394371       5.17912409       0.60000000      -0.78092858      -0.09886105       0.11826213
Ni       5.37750402       0.04945884       5.22769459       0.60000000       0.42384809      -0.63757369      -0.28686860
Ni       5.41563202       1.81994215       3.45687628       0.60000000       0.29397854       0.00167737       0.05378284
Cr       3.61589404       3.64305184      -0.13375583       0.60000000      -0.43960301       0.46265110       0.42206406
Fe       3.60136619       5.50165428       1.63757917       0.60000000       0.05168310      -1.74019490       0.00339114
Fe       5.45290952       3.51949692       1.57649307       0.60000000      -0.88817640       1.60074491       0.43671797
Fe       5.53443514       5.46722325      -0.13417822       0.60000000      -0.24942551      -0.38786461      -0.23042893
Ni       3.53093914       3.55853812       3.49495821       0.60000000       0.27070054       0.78641442      -0.34127834
Cr       3.52065032       5.46736184       5.24715554       0.60000000       0.55709126      -0.19180315       0.00362701
Fe       5.37444883       3.65418429       5.17177512       0.60000000       0.28420418       0.14077995       0.16451795
Co       5.41196266       5.42894593       3.44800804       0.60000000      -0.55254978       0.17977131       0.13741002
32
Lattice="7.069535506555582 0.02031406374092498 0.0387959692239577 0.02031406374092498 7.089353426507598 0.008146173657762537 0.0387959692239577 0.008146173657762537 7.175128588648816" Properties=species:S:1:pos:R:3:initial_magmoms:R:1:mace_force:R:3 mace_energy=-437.361677935882 mace_virial="32.362108674692365 -0.33269222380028085 -5.093084628798906 -0.33269222380028085 28.800265804552637 0.16589158299573326 -5.093084628798906 0.16589158299573326 30.68896316469299" pbc="T T T"
Mn      -0.13907440       0.06614876      -0.02828797       0.60000000       0.65491687      -0.66115330       0.19029813
Mn      -0.04522460       1.74391685       1.89166532       0.60000000       0.51346566      -0.07068642      -0.90271937
Co       1.76335708      -0.12242996       1.80245651       0.60000000       0.12844784       1.19350860      -0.34005417
Mn       1.62546836       1.77926154      -0.07830953       0.60000000       0.93852369      -0.69542044       0.91550165
Co       0.03968986       0.13891517       3.64210690       0.60000000      -0.15645498      -1.79414806      -0.23691989
Co      -0.17713853       1.76658637       5.25679076       0.60000000       1.03489069       0.77895153       0.38721591
Fe       1.81595569      -0.12698962       5.33460578       0.60000000      -0.53738808       1.33440688       0.76162660
Mn       1.83116035       1.69772985       3.60373869       0.60000000      -1.09752572       0.57975874       0.08896229
Cr       0.10239976       3.41555982       0.01270129       0.60000000      -2.05235411       0.84994470      -0.03870339
Ni      -0.04254610       5.41266394       1.81525318       0.60000000       0.19089583      -0.75709144       0.67437411
Fe       1.70203292       3.55742957       1.93873797       0.60000000       0.58578229       0.33929886      -0.86240640
Cr       1.57137180       5.28055740       0.02448119       0.60000000       1.33378775       0.37626564      -0.21375322
Ni       0.01016499       3.53825906       3.51043967       0.60000000      -0.33192559      -0.01128280       0.89641617
Mn       0.09572726       5.27788653       5.25444037       0.60000000      -1.63606696      -0.52412928       0.35529659
Co       1.75642875       3.46135995       5.40960028       0.60000000       0.22566600       0.66235215      -0.84323152
Fe       1.83968813       5.41384413       3.55334456       0.60000000      -0.94861855      -0.52383178      -0.10792081
Fe       3.61309027       0.08520180       0.04202807       0.60000000      -1.53754815      -0.64654386       0.39281795
Fe       3.48648435       1.79363492       1.83017455       0.60000000      -0.07697309       0.12695510      -0.47777210
Cr       5.26020855      -0.04399938       1.92771628       0.60000000       0.20860617       0.01953755      -0.52405785
Ni       5.22727491       1.78080159       0.07619137       0.60000000       0.18025806       0.87512379      -0.17045870
Ni       3.59669307       0.12166589       3.65967069       0.60000000      -1.06153323      -1.30420131      -0.57793724
Fe       3.39687691       1.76275635       5.38969014       0.60000000       1.83238941       0.83705493       0.54076204
Cr       5.26115155       0.03712703       5.49494856       0.60000000       0.42834356      -0.22582986      -0.88521865
Fe       5.29630208       1.59496272       3.49006780       0.60000000      -0.65605676       2.53576829       1.78864859
Co       3.56723953       3.49802653       0.09888514       0.60000000      -0.63126218       0.45836440      -0.63029042
Cr       3.48240240       5.27205501       1.87562427       0.60000000       0.27826330       0.25602145      -0.16126890
Cr       5.21261045       3.54268471       1.95090808       0.60000000       0.45641254       0.20002954      -0.37805408
Fe       5.23401640       5.41743889       0.19031859       0.60000000       0.17063851      -1.82681784      -1.04832040
Ni       3.44416305       3.58838212       3.68126573       0.60000000       0.43015901      -0.86457306      -0.24922546
Mn       3.60905382       5.39414851       5.26815919       0.60000000      -0.31390216      -1.26177082       1.89498825
Ni       5.19409133       3.56880896       5.38731035       0.60000000       0.73582105      -0.44777879       0.33534294
Co       5.26176408       5.30737981       3.63929314       0.60000000       0.71034132       0.19191691      -0.57393865
48
Lattice="7.276623048815622 0.0944775731363756 -0.054181547966322005 0.0944775731363756 7.113827378774995 -0.06359028331971636 -0.081272321949483 -0.09538542497957453 10.675076613610779" Properties=species:S:1:pos:R:3:initial_magmoms:R:1:mace_force:R:3 mace_energy=-658.4400106585354 mace_virial="22.774702197694225 -11.174254428376756 7.010025457634816 -11.174254428376756 25.28879530948466 7.361998496094262 7.010025457634816 7.361998496094262 25.329751354616658" pbc="T T T"
Cr      -0.03510698      -0.01534017      -0.01505818       0.60000000       0.45881004      -0.39614793       0.63176024
Fe      -0.00578729       1.75966993       1.77017835       0.60000000       0.81049581      -0.57839615       0.00720016
Fe       1.82303830       0.00448217       1.80418208       0.60000000      -0.31375825      -0.06895472      -0.93191390
Cr       1.81585538       1.86336632      -0.04641311       0.60000000       0.93867864      -0.55747955       0.33465672
Fe       0.05288675       0.00218977       3.53826392       0.60000000      -0.44288204      -1.21497858       0.12880162
Cr      -0.07084577       1.69660191       5.32451307       0.60000000       0.15427812       0.15223737       0.44523963
Co       1.74127917       0.03921789       5.33871205       0.60000000      -0.07604788      -0.77163146      -0.04418057
Fe       1.78804036       1.80014084       3.56999570       0.60000000       0.28691740       0.39860899      -0.25353856
Ni      -0.04899054      -0.08602730       7.10727856       0.60000000       0.21688284      -0.28615777       0.06068600
Mn      -0.00172694       1.67635958       8.90480257       0.60000000      -0.51044820       0.36980764      -0.60208317
Fe       1.75299506      -0.08721456       8.94947415       0.60000000       0.09521506      -0.31136213      -0.53217064
Mn       1.85233732       1.74133327       7.11085523       0.60000000      -0.81546796       0.11392547      -0.60659700
Cr       0.03485695       3.53804940      -0.09077213       0.60000000      -0.07821475       0.69456742       0.30810565
Co       0.08368268       5.29111760       1.71927761       0.60000000       0.10313137       0.33735087       0.26627049
Fe       1.82528812       3.54033030       1.70094464       0.60000000       0.51435834       0.50880892       0.24210204
Ni       1.86445548       5.38750124      -0.07476988       0.60000000       0.16903275      -0.21160947       0.37153603
Cr      -0.00952200       3.49820811       3.46400174       0.60000000       0.54657546       0.76981402       0.86232132
Co       0.04666815       5.32627072       5.26239406       0.60000000       0.24662222       0.14449728      -0.01679640
Ni       1.83865375       3.51653700       5.27889049       0.60000000      -0.10493209       0.32484750       0.08944579
Ni       1.93732737       5.33084255       3.46279067       0.60000000      -0.79422150      -0.14384234       0.26156284
Mn      -0.08545924       3.55710752       7.04014572       0.60000000       0.71675557      -0.58006884       0.08070088
Co       0.04527458       5.29987513       8.83999977       0.60000000      -0.09957473      -0.16291369      -0.41769262
Fe       1.80997436       3.54842596       8.88919993       0.60000000      -0.29907651       0.32980198      -0.20728594
Co       1.88719844       5.23708437       7.07436368       0.60000000      -0.75826571       0.57158080      -0.38935729
Co       3.61342346       0.05913126       0.02267579       0.60000000      -0.35918744      -0.06136877      -0.27148655
Co       3.64141673       1.82457326       1.74752740       0.60000000      -0.46637834       0.15337527      -0.02305131
Cr       5.41373273       0.05406001       1.76388595       0.60000000       0.51312074       0.08502695      -0.19592050
Cr       5.43214933       1.86319627      -0.05409789       0.60000000      -0.06762192       0.02597710       0.41822962
Mn       3.57374994       0.06531942       3.51626703       0.60000000       0.36997753      -0.66479212      -0.01403006
Fe       3.58263027       1.76281024       5.26613632       0.60000000       0.81757821       0.75600569       0.88084668
Ni       5.41312784       0.02189670       5.35931556       0.60000000       0.02484233      -0.23984411      -0.27430754
Cr       5.44298754       1.77335511       3.55174479       0.60000000      -0.42038385       0.16428541      -0.07846844
Ni       3.54698048       0.00507169       7.04110340       0.60000000       0.40592725      -0.18432887       0.42060136
Mn       3.65626146       1.82521781       8.87029275       0.60000000      -0.11650902      -0.39486967      -0.02178263
Mn       5.39831134       0.03096632       8.88460648       0.60000000      -0.08182473      -0.51393648      -0.78511436
Ni       5.44153609       1.78353821       7.06590096       0.60000000      -0.25151995      -0.10859230      -0.23453933
Ni       3.69139793       3.57894842      -0.04535813       0.60000000      -0.38646496       0.35330035       0.12876925
Cr       3.74491940       5.33416179       1.66489827       0.60000000      -0.55185982       0.02188174       0.14288104
Mn       5.49655183       3.54102503       1.76160460       0.60000000      -0.48938040       0.39426233      -0.07751597
Mn       5.53798119       5.39227404      -0.09446410       0.60000000      -0.02157054      -0.11262552      -0.12673267
Co       3.65359553       3.58694842       3.49305636       0.60000000      -0.13449106      -0.51383237       0.18119745
Mn       3.65759400       5.33595252       5.22105151       0.60000000      -0.20130761      -0.17199617       0.41893399
Co       5.46338224       3.60612269       5.27717767       0.60000000      -0.39385328       0.09334434      -0.47741478
Co       5.51063347       5.37370269       3.44554291       0.60000000       0.31852306       0.24305445       0.62566258
Co       3.69767390       3.54153864       7.09443892       0.60000000      -0.24575224      -0.11907707      -0.97363046
Mn       3.62501001       5.26840386       8.77799764       0.60000000       0.16594225       0.37023992       0.54318119
Ni       5.39343555       3.54925936       8.83382819       0.60000000       0.59413985       0.17143742      -0.35064677
Fe       5.48306777       5.30034172       6.98244523       0.60000000       0.01318993       0.82076685       0.05556487
48
Lattice="7.192797029039972 -0.04716071062760931 -0.07684332527888366 -0.04716071062760931 7.082479408787279 0.036985959791171495 -0.11526498791832548 0.05547893968675724 10.762524775541756" Properties=species:S:1:pos:R:3:initial_magmoms:R:1:mace_force:R:3 mace_energy=-652.8013680597045 mace_virial="34.68764254832851 5.502056084790985 8.231421899156631 5.502056084790985 40.816421050805154 -3.9009797954189716 8.231421899156631 -3.9009797954189716 33.78636095727398" pbc="T T T"
Co      -0.15402221      -0.11262215      -0.05113529       0.60000000       0.84785117       0.66543360       0.65087580
Fe      -0.02658525       1.75782117       1.99342911       0.60000000       0.31345802       0.24853549      -2.17146349
Mn       1.98063600       0.10610004       1.89679872       0.60000000      -1.33384698      -0.76056153      -1.31654928
Ni       1.84366116       1.89996706       0.04974230       0.60000000      -1.22347336      -1.30576007      -0.73466275
Cr      -0.06143695       0.12917209       3.61374543       0.60000000      -0.10456716      -0.63460331      -0.34482483
Co      -0.19093141       1.66819466       5.25560959       0.60000000       0.63253583       1.04094676       1.34839779
Co       1.68150440      -0.09374340       5.28755251       0.60000000       1.48318700       1.34077695      -0.07407850
Mn       1.81763993       1.95272120       3.64623743       0.60000000       0.02156205      -1.31314689       0.75397273
Fe       0.09705701      -0.00042688       7.16572106       0.60000000      -0.99699774       1.20771812      -0.16064395
Ni      -0.06095058       1.71626550       9.06375006       0.60000000      -0.13342823       0.27662053      -0.62305974
Fe       1.81588519       0.11004998       9.00899288       0.60000000      -1.04985655       0.18071207      -0.46076711
Cr       1.74993941       1.79384899       6.86644375       0.60000000      -0.57829727      -0.41574812       1.97040585
Cr      -0.11096448       3.55497415      -0.15238270       0.60000000       1.37628922      -0.13714844       0.85839153
Mn       0.06717994       5.15383526       1.88943555       0.60000000      -1.79441767       1.24566483      -1.52931135
Fe       1.85161645       3.57051024       1.77233452       0.60000000      -0.93950391      -0.29446892      -0.53584285
Fe       1.96353408       5.36530909      -0.02335969       0.60000000      -1.68835023      -0.61330481       0.76702881
Fe      -0.01228669       3.51008659       3.69998491       0.60000000      -0.53557578      -0.23741144       0.11723106
Cr      -0.02203145       5.40867060       5.25495255       0.60000000      -1.29567543      -0.88206172       0.94954328
Co       1.75088146       3.49408209       5.46964986       0.60000000      -0.18985993       1.20666384      -1.13476132
Cr       1.54717761       5.27958511       3.50342919       0.60000000       2.19994401       0.20018453       0.99644917
Co       0.06852061       3.65699712       7.20570614       0.60000000      -1.64441876      -1.24794686       0.07029480
Cr      -0.18764926       5.47750203       8.90015260       0.60000000       1.03509505      -0.39110291       0.87652592
Co       1.78789871       3.62191643       8.97417875       0.60000000      -0.81626596      -0.29628365      -0.43579170
Cr       1.60473649       5.29511414       7.07501038       0.60000000       1.50877733       0.29980010       0.72927752
Ni       3.59257707      -0.05650544      -0.14606287       0.60000000       0.64542239       1.36327076       1.33689032
Fe       3.47785448       1.95260047       1.72752353       0.60000000       2.01514062      -1.42019540       0.15342388
Fe       5.47499682      -0.09416228       1.72994844       0.60000000      -1.36050556       0.26942088      -0.46530806
Co       5.30599534       1.77426852      -0.09091417       0.60000000       0.92027777      -1.08884654       0.34537867
Ni       3.57541650      -0.04201831       3.59355251       0.60000000       0.22700732       0.59667673       0.11765134
Mn       3.62005510       1.86472702       5.40059231       0.60000000      -0.88996642      -0.95763198      -0.45199718
Mn       5.15127396       0.01979847       5.48437157       0.60000000       3.21661291       0.68812455      -2.80415419
Cr       5.27518370       1.86736364       3.49521878       0.60000000      -0.57022540      -1.20247742       0.22080813
Ni       3.61469788      -0.03696922       6.96455213       0.60000000      -2.44380818       0.78235609       2.81563253
Cr       3.45052566       1.84896001       8.87071364       0.60000000       0.30794299      -0.53942199      -0.03237193
Co       5.24215843       0.01351257       8.87825717       0.60000000       0.10962785       0.55238024      -0.10263193
Ni       5.32700097       1.78191563       7.14065112       0.60000000       0.96818006       0.17124867       0.41202670
Cr       3.60400680       3.46685228       0.00071483       0.60000000       0.01969895       0.73092150       0.57845432
Ni       3.53252769       5.29072608       1.95850077       0.60000000       0.60036052       0.33725198      -1.63751510
Co       5.50738658       3.34656885       1.77542349       0.60000000      -0.81105697       1.47885277      -0.66232773
Co       5.14724491       5.28193890      -0.19767204       0.60000000       1.26455855       0.89172660       2.28231451
Mn       3.59430770       3.60165235       3.52832214       0.60000000      -0.24529065       0.65381273       0.12014374
Mn       3.58217731       5.32379727       5.44214586       0.60000000      -2.07427252      -0.78230575      -1.13651853
Mn       5.27648845       3.57121088       5.22301702       0.60000000       2.03197866      -0.02586336       1.98586333
Ni       5.28459435       5.33913573       3.60070521       0.60000000       0.64849588       0.02192289      -0.43191659
Ni       3.66047400       3.49297003       7.09537557       0.60000000      -0.81870582       1.12432425       0.51161872
Fe       3.40538377       5.32842876       9.00804157       0.60000000      -0.25621603       0.70272199      -2.41007084
Mn       5.19320165       3.71979325       9.01981861       0.60000000       0.88741062      -1.99435706      -2.31625499
Fe       5.33488346       5.46673322       7.11375005       0.60000000       0.51316778      -1.73742130       1.00422350
48
Lattice="7.130082060409518 -0.04262473408825668 0.07114714875359682 -0.04262473408825668 7.369124207913066 -0.07091089654609867 0.10672072313039523 -0.106366344819148 10.686231634857247" Properties=species:S:1:pos:R:3:initial_magmoms:R:1:mace_force:R:3 mace_energy=-655.8444600609107 mace_virial="28.39092340367474 2.3499129193490385 -7.488871465817829 2.3499129193490385 24.03776774294242 7.892779123797678 -7.488871465817829 7.892779123797678 31.458188826472337" pbc="T T T"
Mn       0.01312977      -0.00711504       0.06687904       0.60000000      -0.35106031      -0.65150599      -0.21153729
Fe      -0.06525970       1.57245797       1.71265816       0.60000000       0.92737984       1.66469415       0.77847507
Co       1.86005045      -0.09549898       1.88834285       0.60000000      -1.33634181      -0.09568466      -0.57372215
Ni       1.81669328       1.76418335      -0.16234658       0.60000000      -0.28417582       0.92391670       2.16738895
Fe       0.06666029      -0.13381244       3.63250314       0.60000000      -0.09993917      -0.55697751      -1.92829648
Ni       0.15864180       1.73585116       5.32706035       0.60000000      -2.02189118       0.87591818       0.28590054
Mn       1.74325355       0.05939441       5.26498967       0.60000000       0.41228774      -1.54470788       1.57303115
Fe       1.71626713       1.83179194       3.68505269       0.60000000      -0.13329607      -0.35129368      -1.76236298
Cr       0.06318521      -0.07286533       7.19740161       0.60000000       0.12089753       0.51542253      -0.40540930
Cr       0.19301871       1.72921790       8.95426359       0.60000000      -1.32023852       0.67699461      -0.05032429
Mn       1.85334407      -0.12281202       9.01738220       0.60000000       0.81176942      -0.08544874      -1.66208175
Fe       1.78779553       1.78645337       7.06716220       0.60000000       1.19926580      -0.16844903       0.89030296
Co       0.09264936       3.76561648      -0.04133509       0.60000000      -0.06899039      -0.48610851       0.10625608
Ni      -0.08071489       5.43950586       1.83935875       0.60000000       0.59520853       0.41160967      -0.40337138
Fe       1.70307424       3.61944498       2.02975482       0.60000000      -0.12872431      -0.21573638      -1.87287689
Fe       1.71618110       5.59803124      -0.09947154       0.60000000      -0.32454677      -1.46768924       0.88593222
Co       0.01841945       3.78029726       3.57491509       0.60000000      -0.41630105      -1.23385000       0.46381234
Mn       0.10610992       5.46598845       5.33956985       0.60000000       0.04309516       0.33470240      -1.01684576
Fe       1.84915053       3.46614322       5.31415337       0.60000000       1.11208529       1.50207475      -0.28456041
Ni       1.98497269       5.44066837       3.54641799       0.60000000      -2.04339000       0.20685668      -0.60851205
Mn       0.17192242       3.64911192       7.01502256       0.60000000      -1.04180074      -0.40509912       1.45612218
Co       0.04782755       5.44848315       8.75585511       0.60000000       0.44934484      -0.39976128       0.97454681
Ni       1.83711593       3.62312036       8.81146402       0.60000000       0.40492410       0.08266604       0.60959956
Ni       1.80954080       5.57657859       7.05142334       0.60000000       0.73914509      -0.62021825       0.32803410
Co       3.68817066      -0.10038145       0.07415838       0.60000000      -1.97705059       0.44656409      -0.36466981
Cr       3.38132815       1.61245655       1.81441351       0.60000000       0.49717970       1.52276251       0.11491999
Cr       5.23259844      -0.14294925       1.78997741       0.60000000       1.14197722      -0.43960484       0.86904456
Mn       5.12540940       1.87070511       0.05847839       0.60000000       1.47940555      -0.88581169      -0.65691523
Mn       3.54061130       0.01418315       3.59289538       0.60000000       0.57975335      -1.89638209      -0.84349090
Mn       3.68931887       1.53347740       5.26265243       0.60000000      -0.52579872       2.94200739       1.59890668
Mn       5.46418422       0.01369794       5.35708951       0.60000000       0.34568461      -2.01190000       1.04662425
Ni       5.42043505       1.46382978       3.63289779       0.60000000       0.47614699       2.44255641      -0.89687601
Cr       3.73409612      -0.02779210       7.20696844       0.60000000      -0.91131093      -0.38363780      -0.40014115
Co       3.56334912       1.69379784       8.99962669       0.60000000       0.22751183       0.58140750      -1.18776919
Mn       5.33042165      -0.11533765       9.00042523       0.60000000       1.35007892       1.23082303      -0.52463617
Fe       5.43037512       1.77348424       7.21114101       0.60000000       0.10828054       0.43017064       0.01375251
Co       3.63120660       3.63565970       0.05138615       0.60000000      -2.10222192       0.20866513       0.05631221
Cr       3.40913832       5.45934162       1.61357981       0.60000000       0.93612024      -0.29733805       0.63825742
Mn       5.34829795       3.52242892       1.78976997       0.60000000       0.04442890       1.14302497       1.22060936
Cr       5.35678902       5.55131362      -0.17712396       0.60000000       0.85971520      -1.10532245       1.32440649
Co       3.49901592       3.54797897       3.61791771       0.60000000       0.98007729      -0.01938104      -0.00319254
Co       3.33560100       5.57575372       5.23986418       0.60000000       1.89930697      -0.78136153       1.30882491
Fe       5.32475866       3.68017062       5.38508442       0.60000000      -0.48426746      -0.89832673      -0.51358381
Ni       5.31086043       5.32800226       3.61559156       0.60000000      -0.36547569       0.73346525      -0.01708868
Ni       3.64835819       3.56251000       7.19266124       0.60000000      -0.60933610       0.10172032      -1.19688761
Mn       3.72029147       5.43432684       8.95492756       0.60000000      -1.72760429      -1.11828401      -1.02923314
Cr       5.20321531       3.54393977       8.91010503       0.60000000       1.94103761      -0.30859824      -0.00882333
Cr       5.55444708       5.47731555       7.11338017       0.60000000      -1.40834640      -0.54954422      -0.28785205
48
Lattice="7.0831679312938665 -0.0797781877672695 -0.0190689280097438 -0.0797781877672695 6.98220246564385 -0.00668361875209137 -0.0286033920146157 -0.010025428128137054 10.469714139425646" Properties=species:S:1:pos:R:3:initial_magmoms:R:1:mace_force:R:3 mace_energy=-655.7693621577005 mace_virial="57.42688063866347 10.390277667131643 1.9379433882346813 10.390277667131643 60.17617460014172 1.1829873768900647 1.9379433882346813 1.1829873768900647 58.78155441969921" pbc="T T T"
Cr      -0.01071695       0.02659392       0.06831230       0.60000000      -0.36509997      -0.64369707      -1.03272916
Mn      -0.00159177       1.73486358       1.69690101       0.60000000      -0.39369982       0.16832995       1.10900136
Fe       1.77830332      -0.04005531       1.70132255       0.60000000       0.30418474      -0.22437945       0.47938776
Cr       1.70167158       1.63667556       0.00503290       0.60000000       0.72960241       0.78802545      -0.78554796
Fe      -0.00491613      -0.08161436       3.49431461       0.60000000      -0.13904585       0.24333670      -0.00419600
Mn      -0.04308971       1.75523835       5.25557223       0.60000000      -0.09327454      -0.10899268      -0.69571386
Ni       1.77477618       0.02250474       5.22796839       0.60000000      -0.43646532      -0.72814925      -0.00509516
Fe       1.66397421       1.71709327       3.50379664       0.60000000       0.57705885       0.26839419      -0.09322909
Co      -0.00445469      -0.06164204       6.95739030       0.60000000       0.16311355       0.78471787       0.40528262
Mn      -0.12532151       1.81073304       8.73855846       0.60000000       1.33221337      -1.10157200      -0.27293355
Fe       1.83075929      -0.11663257       8.66388555       0.60000000      -1.19030503       1.07480401       0.09345341
Fe       1.70511224       1.75558754       6.89502608       0.60000000       0.66214352      -0.98173450       1.73476962
Mn      -0.06309734       3.52230693       0.06948976       0.60000000       0.44350673       0.44932572      -1.18973594
Cr      -0.06986430       5.20466446       1.68055174       0.60000000      -0.07616358       0.17863991       0.66101665
Co       1.67905832       3.45157190       1.77026399       0.60000000       0.59584252       0.24671286       0.18736494
Mn       1.75083650       5.20581118      -0.10363774       0.60000000      -0.40841541      -0.05057613       0.89942678
Ni      -0.13770147       3.52673151       3.52353994       0.60000000       0.95343037      -0.07100686       0.09274324
Ni      -0.12624432       5.27716182       5.30077353       0.60000000       0.25954015      -0.27911591      -1.02193904
Ni       1.76810725       3.39790143       5.33138648       0.60000000      -0.13490461       1.09008885      -1.74815328
Cr       1.65905072       5.27816906       3.42759747       0.60000000       0.38160895      -0.68843887       0.78601939
Mn       0.02548152       3.50895139       6.94050203       0.60000000      -1.28047176       0.60814415       0.57812201
Co      -0.14187267       5.26172337       8.66903708       0.60000000       0.25127350      -0.20609401       0.76340253
Ni       1.68124177       3.46944110       8.67328640       0.60000000       0.41244848      -0.56152215       0.52489501
Cr       1.64400212       5.17259181       6.97007990       0.60000000       0.72467805       0.50610108      -0.50306179
Fe       3.58795701      -0.04097102      -0.02880529       0.60000000       0.50667860      -0.37276022      -0.03736733
Mn       3.50316275       1.66433794       1.76411186       0.60000000       0.19913143       0.12780204       0.47771462
Ni       5.30013200      -0.06646004       1.76043081       0.60000000      -0.17135994      -0.28538320      -0.10503474
Mn       5.33692959       1.72544140      -0.03082815       0.60000000      -0.62095610      -0.79141155       0.40045659
Co       3.51627058      -0.03989005       3.50455977       0.60000000      -0.24297437      -0.37504584      -0.09111746
Cr       3.50527215       1.68741747       5.26805057       0.60000000       0.10482977       0.36884127      -0.70133194
Fe       5.28872653      -0.00726234       5.20561977       0.60000000      -0.08947637      -1.21961423       0.23460807
Cr       5.28685534       1.57961147       3.48436072       0.60000000       0.37742123       1.01193808      -0.03500227
Fe       3.46750307      -0.01390436       6.96350876       0.60000000       0.56413322      -0.30298149      -0.12915458
Co       3.56273300       1.66904908       8.73473002       0.60000000      -0.86831042       0.23457427      -0.24983709
Ni       5.31685072      -0.09004583       8.67282039       0.60000000      -0.12595268       0.38071332       0.40054088
Mn       5.26717019       1.67992857       6.93231880       0.60000000      -0.39769287      -0.00867635       0.38900924
Mn       3.57065496       3.46330912       0.05133693       0.60000000      -0.73549427       0.15858191      -0.46188773
Co       3.49965859       5.21782527       1.76564258       0.60000000      -0.14975504       0.03415502      -0.30194799
Co       5.29614183       3.42932701       1.73957242       0.60000000      -0.50431174      -0.12245815       0.36623163
Co       5.30799646       5.19398768       0.04348826       0.60000000      -0.64711127       0.06285530      -0.77910091
Fe       3.49192029       3.52567351       3.48780276       0.60000000      -0.41193027      -0.66385504       0.01405487
Co       3.49217470       5.23910521       5.19576911       0.60000000      -0.30874579      -0.43815779       0.48830166
Ni       5.30007514       3.41272145       5.23842253       0.60000000      -0.64517262       0.40537815      -0.00755374
Fe       5.20137783       5.13424205       3.47464497       0.60000000       0.38881456       0.60922899       0.14901046
Co       3.49537247       3.40363475       7.00975319       0.60000000      -0.08353601       0.20876620      -0.26371645
Cr       3.49224199       5.18101307       8.65784171       0.60000000       0.21101124      -0.28190629       0.60863765
Ni       5.22334511       3.38327531       8.73756458       0.60000000       0.38305518       0.67983502      -0.22966356
Cr       5.21553029       5.17066576       7.04405202       0.60000000      -0.00509477      -0.18176132      -1.09840037
48
Lattice="7.211723111803125 0.12341973634982954 -0.03932104025064674 0.12341973634982954 7.161333455196435 0.028038188180811257 -0.05898156037597011 0.042057282271216884 10.807662984095247" Properties=species:S:1:pos:R:3:initial_magmoms:R:1:mace_force:R:3 mace_energy=-656.1389304695792 mace_virial="19.805894559605342 -11.218193499101138 2.584741235912472 -11.218193499101138 21.9014840671633 -3.13074359404355 2.584741235912472 -3.13074359404355 22.150666177216056" pbc="T T T"
Co      -0.00237291      -0.04795721      -0.07082467       0.60000000       0.19850521       0.97994718       0.03438302
Fe       0.06141204       1.79513281       1.71076054       0.60000000      -0.21127051      -0.88688200       1.41183227
Cr       1.82583862       0.15616946       1.78667665       0.60000000      -0.21916388      -1.06202571      -0.22873001
Ni       1.77688620       1.82616922      -0.01330634       0.60000000       0.22513081      -0.46369453      -0.41259695
Co      -0.07573960       0.01965705       3.59903475       0.60000000       0.51893468       0.80274599       0.00810255
Ni       0.00570088       1.89597551       5.41444882       0.60000000       0.06069645      -0.46373954      -0.38863663
Ni       1.79688126       0.07375162       5.40351631       0.60000000      -0.30032249      -0.02125512      -0.50751447
Co       1.84850056       1.84721679       3.53478008       0.60000000      -1.01898187      -0.31553050       0.86161788
Cr       0.06761873       0.02935606       7.14445736       0.60000000      -0.67565819       0.35819478      -0.00610336
Fe      -0.06664365       1.85315057       8.94576347       0.60000000       0.82006077      -0.77624081       0.40988962
Fe       1.73075269       0.05849998       8.99627921       0.60000000       0.60172268       0.21413753       0.40699447
Co       1.72434101       1.86944898       7.16913150       0.60000000       0.43249613      -0.17806206       0.19913897
Mn       0.20118371       3.57697018       0.04064139       0.60000000      -0.68184474       0.11638444      -0.72081096
Mn       0.11539338       5.46267181       1.70529622       0.60000000      -0.44860311       0.11041546       1.55744918
Cr       1.87293894       3.62755111       1.83967082       0.60000000      -0.01704836       0.21411894      -0.33317568
Fe       1.83273802       5.32835058      -0.06326312       0.60000000       1.76687496       1.07815353      -0.48739345
Cr       0.04723198       3.56963137       3.58043314       0.60000000       0.19048435      -0.20827204       0.07929556
Cr       0.14466045       5.40962245       5.34949998       0.60000000      -0.20368098      -0.30951196       0.56687526
Fe       1.84472347       3.65398457       5.42536969       0.60000000      -0.12443043      -0.60786337      -0.26157670
Ni       1.88878589       5.39516938       3.69140156       0.60000000       0.25591562       0.71095217      -0.65069078
Mn      -0.05744473       3.62563441       7.24723950       0.60000000       0.29719775       0.43428205      -1.09236358
Cr       0.00889282       5.42346058       9.02359258       0.60000000       0.41225297      -0.27625957      -0.35114200
Ni       1.89976268       3.61009264       8.95474158       0.60000000      -0.59541007       0.17502358       0.19939944
Mn       1.87512006       5.36462700       7.23146445       0.60000000       0.16037467       0.71044285       0.31444612
Co       3.60926556       0.17994016      -0.02931374       0.60000000       0.07000585      -1.48727739      -0.12996152
Mn       3.67828722       1.83464044       1.73636113       0.60000000      -0.19272284      -0.43065604       0.00213313
Ni       5.35861423       0.09440659       1.72400473       0.60000000       0.34357868       0.07302579       0.41941434
Mn       5.59149752       2.00704472      -0.01707806       0.60000000      -0.84603433      -1.43385783      -0.10069789
Ni       3.52688817       0.16696058       3.57085973       0.60000000       0.80283106      -1.11067643       0.03315006
Cr       3.50185539       1.82530760       5.37145014       0.60000000       0.70083678       0.86910331       0.03516523
Mn       5.39516136       0.10703528       5.41985531       0.60000000       0.07408901       0.53743488      -0.61015263
Co       5.46525481       1.92221098       3.48405563       0.60000000       0.26691052      -0.75869992       0.71425505
Co       3.55393484       0.13027348       7.09835165       0.60000000      -0.12378897      -0.16105463       1.11151348
Mn       3.56709355       1.86982499       9.09235130       0.60000000       0.10320005      -0.61063005      -1.05548876
Co       5.38400619       0.13276400       8.94740063       0.60000000      -0.55373788       0.22198032      -0.34376931
Co       5.42434892       1.99190200       7.15208632       0.60000000      -0.40949921      -0.53684984      -0.01552706
Fe       3.68032053       3.57817543       0.00975374       0.60000000      -0.54976381       1.30445910      -0.06553559
Fe       3.71564779       5.41252033       1.81345316       0.60000000      -0.10934226       1.07559070      -0.66581711
Ni       5.42491141       3.60102728       1.83704185       0.60000000       0.54785220       0.77079497      -0.72416379
Cr       5.48587977       5.46655119      -0.01286175       0.60000000      -0.53644299       0.01795158       0.29295336
Mn       3.64632544       3.62271825       3.50554084       0.60000000       0.21250228       0.14060703       1.16539645
Fe       3.65767524       5.44146168       5.38784045       0.60000000       0.12020304       0.18826989      -0.03283712
Co       5.43738873       3.73775755       5.27308890       0.60000000      -0.29317587      -0.50080553       1.14689774
Cr       5.58196537       5.45399276       3.57539455       0.60000000      -0.72566753       0.80640142      -0.62944738
Fe       3.67655723       3.61516586       7.30660552       0.60000000      -0.02837292       0.14086846      -1.62373659
Ni       3.65594527       5.42290463       9.00925100       0.60000000      -0.22208210       0.76565541       0.12141955
Mn       5.42510130       3.74981397       8.94415259       0.60000000      -0.01985763       0.41520760       0.56178863
Ni       5.41381536       5.60054345       7.21000552       0.60000000      -0.07575355      -0.63230407      -0.21564203
48
Lattice="7.389653951000755 0.009367832897458434 0.09408009787472021 0.009367832897458434 7.335518654948034 0.031179569337238127 0.14112014681208032 0.04676935400585719 10.92309761216582" Properties=species:S:1:pos:R:3:initial_magmoms:R:1:mace_force:R:3 mace_energy=-656.5252309234318 mace_virial="-3.094756544238493 0.26745627992717574 -8.925868821786297 0.26745627992717574 -7.002307890217854 -5.114693475083556 -8.925868821786297 -5.114693475083556 -5.897070925096421" pbc="T T T"
Mn       0.07566962       0.03887874      -0.02603415       0.60000000      -1.44720788      -0.14482837       0.91990596
Ni       0.07149289       1.94314100       1.79607004       0.60000000      -0.42392387      -0.82964079       0.12064858
Fe       1.95885768       0.05485659       1.77334105       0.60000000      -0.85792251      -1.18728765       1.35141497
Mn       1.82993018       1.80793884       0.08538609       0.60000000      -0.32009183       0.35275380      -0.23937997
Co       0.01783022       0.16126767       3.56275404       0.60000000       0.09459330      -0.83947960      -0.10066495
Mn      -0.01794450       1.95564115       5.49840628       0.60000000       0.24136313      -0.45208968       0.75569192
Fe       1.91191708       0.10619772       5.37968056       0.60000000      -0.00028500      -0.80132967      -0.00777760
Co       1.75882768       1.89971055       3.61426263       0.60000000       0.93947068      -0.36866934      -0.02121302
Co       0.10562975      -0.00894897       7.20620939       0.60000000      -0.02990454       0.11002531       0.32940558
Ni       0.07982585       1.87216600       9.06820423       0.60000000       0.21307439      -0.28991030      -0.38889903
Mn       1.98069748      -0.00781781       9.10494051       0.60000000       0.47336744       0.55668909      -1.35793141
Cr       2.04879495       1.86385158       7.25016526       0.60000000      -1.35172652       0.02610776       0.55863143
Cr      -0.05942796       3.61099619      -0.04430694       0.60000000       0.54729004       0.01465798       0.20427380
Co      -0.04231207       5.54444221       1.86007018       0.60000000       0.81797491       0.27079099       0.30744229
Co       1.90733472       3.66971835       1.71153768       0.60000000      -0.26571758       0.75728097       1.10558550
Ni       1.78992527       5.52701532      -0.03933886       0.60000000      -0.11685741       0.02536261       1.04909619
Cr       0.01328825       3.60523203       3.60963247       0.60000000      -0.05957437       1.20580762      -0.21909339
Fe       0.19870916       5.50657414       5.45154937       0.60000000      -0.68736074       0.24986989      -0.11492646
Fe       1.83129865       3.72022904       5.39292288       0.60000000       0.98296837      -0.05843630       0.12127578
Ni       1.94668204       5.50541815       3.68594987       0.60000000      -0.21844754       0.31623999      -0.63062830
Ni       0.07460212       3.74315490       7.28817626       0.60000000      -0.02234167      -0.31216058      -0.09777557
Mn       0.17022880       5.53048173       9.06798863       0.60000000       0.07413120      -0.65240188      -0.08017381
Cr       2.07682913       3.56146835       9.32474931       0.60000000      -1.16529964       1.01256455      -1.33493441
Co       1.93174445       5.37957528       7.32951855       0.60000000       0.46878857       0.52892941      -0.45225861
Mn       3.70807389      -0.00910123      -0.06068403       0.60000000      -0.25431930      -0.27202913       1.45308186
Cr       3.71793213       1.78977688       1.86042242       0.60000000       0.10771848       0.64326279      -0.02120922
Co       5.56439284       0.07718515       1.92088488       0.60000000       0.56101266      -0.25922644       0.20528332
Ni       5.54016046       1.80496551       0.03446343       0.60000000       0.09162896      -0.03776241       0.39994212
Fe       3.81941415       0.01101671       3.68181897       0.60000000      -0.63401997      -0.17161868      -0.45157857
Fe       3.64139233       1.89266338       5.51465395       0.60000000       0.83853448       0.32564447      -0.65316513
Mn       5.54704028       0.02861694       5.58201252       0.60000000       0.60673718       0.56565395      -0.31420819
Fe       5.55953428       1.86185301       3.72182213       0.60000000      -0.16069579       0.00021370      -0.20862141
Co       3.84855079      -0.05251175       7.31664467       0.60000000      -0.65110450      -0.13646984       0.14663563
Cr       3.80322998       1.90909494       9.14343424       0.60000000       0.68190879      -0.92158739      -0.06647252
Mn       5.61241086      -0.00665416       9.23087098       0.60000000       0.94512450       0.57175348      -1.49523213
Ni       5.63652675       1.87024969       7.38584902       0.60000000      -0.13070791       0.07501079      -0.23955778
Cr       3.57478943       3.65690200      -0.02620778       0.60000000       1.10058128       0.64205134       0.99075261
Ni       3.82370103       5.69416544       1.85676175       0.60000000      -0.75376709      -0.84170261       0.67316842
Mn       5.58645174       3.69207100       1.85874784       0.60000000      -0.58201091      -0.17752031       0.76317030
Cr       5.59724012       5.39978952       0.18300128       0.60000000      -0.06744443       1.11489627      -0.88005371
Co       3.71751438       3.71451866       3.66430759       0.60000000      -0.12971959      -0.19754505      -0.28757452
Cr       3.84218931       5.41972156       5.43428657       0.60000000      -1.27978281       0.44423002       0.77283155
Co       5.53833432       3.67677602       5.62977998       0.60000000       0.14303722      -0.00573590      -0.26366984
Ni       5.58435956       5.54799432       3.86173750       0.60000000       0.74498435      -0.05303468      -1.13588879
Fe       3.67911408       3.69078361       7.29123830       0.60000000       0.91262027       0.61011871       0.23709710
Co       3.76340082       5.55437080       9.31028508       0.60000000       0.39602532      -0.21391072      -1.51438479
Cr       5.64012037       3.72331048       9.19650454       0.60000000      -0.08174665      -0.00115022      -0.44955182
Fe       5.67008345       5.59998007       7.29973087       0.60000000      -0.29095545      -1.19438796       0.56149003
48
Lattice="6.899691487964562 -0.0037758039297167744 0.04781887837831624 -0.0037758039297167744 7.121098708936254 0.07268587657019598 0.07172831756747436 0.10902881485529399 10.341015579035103" Properties=species:S:1:pos:R:3:initial_magmoms:R:1:mace_force:R:3 mace_energy=-647.5243650315126 mace_virial="80.66100403204783 -2.917089807319525 -11.437722590039089 -2.917089807319525 80.191706675151 -8.582637149782197 -11.437722590039089 -8.582637149782197 88.62983509957017" pbc="T T T"
Co       0.06812834      -0.01716833       0.05478103       0.60000000      -1.33799131       0.11127045      -1.53565659
Cr       0.14888057       1.77921836       1.75476336       0.60000000      -1.94313939       0.72786561      -0.50546597
Mn       1.53682004       0.07963167       1.77599360       0.60000000       2.97528960      -1.01557217      -0.90729618
Fe       1.76633125       1.73261860      -0.01637419       0.60000000       0.25511218       0.77789531       0.34403585
Mn      -0.18961816       0.04103341       3.38723658       0.60000000       0.51476575       0.23989445       0.80853832
Mn       0.04763861       1.84807393       5.20854063       0.60000000      -0.89836928      -0.13395908      -0.68932351
Ni       1.66761801       0.11954981       5.22251252       0.60000000       0.25578628      -1.63439917      -0.39135180
Ni       1.70418591       1.70346193       3.43160912       0.60000000       0.93563184       0.76266179       0.75795559
Co      -0.08494571       0.08165059       6.84959046       0.60000000       1.13091587      -0.00962888       0.60303767
Cr       0.20164770       1.95267652       8.57784458       0.60000000      -0.79156009      -1.65740556       0.52184287
Mn       1.74041079       0.05691995       8.55226052       0.60000000      -0.93815295       0.99472577       0.72757343
Co       1.84634739       1.81258081       6.71808966       0.60000000      -0.95643458      -0.11171300       2.49056258
Co      -0.04186955       3.34078308       0.02410652       0.60000000      -0.01565789       1.46992863      -0.08921173
Mn       0.06106584       5.31796955       1.62907945       0.60000000      -2.18219847       0.06357997       0.82415610
Fe       1.69990409       3.65185397       1.76089047       0.60000000       1.27405072      -1.14364631       0.20362554
Ni       1.57000379       5.23679945       0.06131201       0.60000000       1.99809607       0.95584042      -0.79996693
Mn       0.01283259       3.61922868       3.41437146       0.60000000       0.52204761      -0.67930250       0.42811010
Cr      -0.24832151       5.36718013       5.33584572       0.60000000       3.52985086       0.60997899      -0.61930694
Cr       1.82962392       3.45667599       5.15403529       0.60000000      -1.16436562       2.21137951       0.08774208
Fe       1.67272559       5.50526782       3.53156573       0.60000000      -0.23895482      -0.85627381       0.44242208
Mn      -0.10443375       3.56575629       7.04711844       0.60000000       1.13634775      -0.09645333      -1.09311312
Ni       0.10656532       5.42229531       8.52818052       0.60000000      -4.12826767       0.95717294       3.05335292
Co       1.63173830       3.86110695       8.62775552       0.60000000       2.56980259      -3.17085379       1.58526407
Ni       1.66272339       5.37185032       7.15884440       0.60000000       2.38483115       0.95194611      -5.25362534
Ni       3.58097441       0.05574062      -0.02082116       0.60000000      -2.46243670      -1.65878028       1.06965696
Ni       3.53705527       1.91986835       1.75892970       0.60000000      -2.42744997      -1.35178998      -0.85831418
Cr       5.14709983       0.02558732       1.79694848       0.60000000       0.23031854      -0.88783798      -0.13781455
Co       5.12352158       1.58826816       0.20214695       0.60000000       1.94637950       2.02287641      -1.45167532
Cr       3.53168251      -0.03355437       3.49439402       0.60000000      -0.66080899       0.96336556       0.17299723
Mn       3.55698782       1.92464896       5.18100846       0.60000000      -0.51266250      -1.48621943       1.13011260
Mn       5.17017586       0.02892898       5.24551681       0.60000000      -0.15758936       0.86730335      -0.71679674
Ni       4.99301269       1.96463848       3.47483799       0.60000000       4.79827665      -3.79157341      -0.30034190
Fe       3.49466907       0.00626644       6.85170073       0.60000000      -0.57658137       0.58357203      -0.42639102
Mn       3.52272939       1.84427166       8.65761911       0.60000000      -0.83150149      -0.29252942      -0.36145896
Ni       5.16889120       0.17191794       8.60070321       0.60000000       1.49652596      -1.22483844       0.73730762
Co       5.25440131       1.76089735       7.00197715       0.60000000      -0.59014894       1.17995356      -0.87555611
Fe       3.49785219       3.61127516      -0.00866225       0.60000000      -2.40560798      -0.37512630       1.30692998
Co       3.45652893       5.38545975       1.91520138       0.60000000      -0.35259773      -0.34728651      -1.22847506
Cr       5.17111735       3.61311858       1.79408552       0.60000000       0.41798490       0.41575882      -0.92174548
Ni       5.08752918       5.21260625      -0.02641245       0.60000000       1.50397712       2.02018436       0.86603170
Cr       3.54172883       3.40755929       3.47815595       0.60000000      -3.09057292       4.16577619      -0.33778494
Fe       3.36543891       5.38801393       5.21584658       0.60000000      -0.10925939      -0.75585241       0.77562320
Cr       5.29856827       3.63051803       5.16099368       0.60000000      -1.12491422      -0.72156755       1.27894524
Cr       5.25468619       5.32994640       3.58722502       0.60000000      -0.82450198      -0.07012018      -1.14424460
Co       3.44446113       3.45596248       7.00668102       0.60000000       0.42884911       2.29242436       0.15644363
Fe       3.47432823       5.62481992       8.70748288       0.60000000       0.54102974      -1.94136261      -0.08016618
Fe       5.10805421       3.60718902       8.81882940       0.60000000       1.39861215       0.00834231      -1.42826304
Fe       5.20384313       5.35728232       6.96355490       0.60000000      -1.52275633       0.06039519       1.78107882
48
Lattice="7.378309557827741 0.07423386979467295 0.057383504795106115 0.07423386979467295 7.204721852437416 -0.11279033618039923 0.08607525719265917 -0.16918550427059884 11.136856646974534" Properties=species:S:1:pos:R:3:initial_magmoms:R:1:mace_force:R:3 mace_energy=-657.8625568771274 mace_virial="-4.766595594825305 -7.257061315617647 -3.326621848244415 -7.257061315617647 -1.373196373842574 9.632807809318079 -3.326621848244415 9.632807809318079 -9.61038505913635" pbc="T T T"
Co      -0.02879598       0.06790231       0.03270487       0.60000000       0.28974699      -0.36199278       0.09733631
Ni       0.06055703       1.72031698       1.87059334       0.60000000      -0.29160967       0.28603042      -0.27076751
Ni       1.85495665      -0.01237075       1.84811291       0.60000000      -0.02334525      -0.21842569       0.03127157
Cr       1.87191784       1.82361601       0.00899981       0.60000000       0.10918357      -0.05890044       0.71099070
Ni       0.09988552      -0.05579948       3.67524536       0.60000000      -0.29531260      -0.16468520       0.07233068
Fe      -0.00365581       1.63131875       5.50685866       0.60000000       0.90656516       0.61382756       0.81976305
Ni       1.90248013      -0.07995248       5.55787252       0.60000000      -0.03403996       0.17344793       0.39815084
Mn       1.80661432       1.78973708       3.69493016       0.60000000       0.58173524      -0.57383034      -0.55882474
Ni       0.10484495      -0.13475234       7.52033274       0.60000000       0.13890786      -0.25090401      -0.81315206
Cr       0.19490904       1.63039558       9.18991247       0.60000000      -0.61565047       0.54329970       0.20345252
Fe       1.87310863      -0.12017445       9.31506525       0.60000000       0.41995469      -0.25413016      -0.53245696
Co       1.93624245       1.71797794       7.42412321       0.60000000      -0.61887612      -0.48568183      -0.53600314
Mn       0.09486523       3.62238232       0.01210320       0.60000000      -0.55632231       0.06452713       0.17349650
Fe       0.07563681       5.47513014       1.80925978       0.60000000       0.07577776      -0.48699698      -0.17681373
Co       1.91169592       3.56359115       1.82300871       0.60000000       0.07781484       0.72059816      -0.03550921
Co       1.88098238       5.50817571      -0.22139131       0.60000000       0.10147610      -0.10291471       1.12887721
Ni       0.13397415       3.54384905       3.64036552       0.60000000      -0.62252237       0.23389106      -0.08437348
Cr       0.13208349       5.31959860       5.49816025       0.60000000      -0.02163512       0.25808243       0.16797580
Fe       2.00121781       3.54651919       5.55726363       0.60000000      -0.73506702      -0.16235486       0.09797847
Mn       1.96712596       5.34764910       3.63820628       0.60000000      -0.29209620       0.29992113      -0.03321263
Co       0.14484644       3.50631475       7.33501764       0.60000000      -0.22491927      -0.24600328      -0.14803342
Mn       0.14592575       5.24637496       9.18610050       0.60000000      -0.94568784       0.34854484      -0.50123453
Mn       1.96128695       3.54387595       9.25195885       0.60000000       0.73300935      -0.71315926      -0.34551763
Ni       2.00156098       5.23713318       7.32269319       0.60000000      -0.26021862       1.03090094       0.16443069
Mn       3.67179634       0.02054231       0.11939941       0.60000000      -0.31903065       0.63850377      -0.46354262
Ni       3.70964261       1.90031758       1.79899861       0.60000000       0.35600404      -0.13240210       0.39354272
Mn       5.50052780       0.01483927       1.84759514       0.60000000       0.67002757       0.80924288       0.68507490
Fe       5.63796573       1.92892064      -0.01622677       0.60000000      -0.49237456       0.09654070       0.35583262
Cr       3.79651081       0.01391855       3.75049065       0.60000000      -0.93469788      -0.15134892      -0.65526522
Mn       3.77380454       1.75771664       5.65662040       0.60000000      -0.72384407       0.12443036      -0.58337698
Cr       5.58260219       0.00627271       5.51738150       0.60000000       0.74584880      -0.75002922       0.84650986
Cr       5.60234049       1.78454676       3.76803815       0.60000000       0.35966474       0.71515644      -0.40597542
Cr       3.79539550      -0.03149705       7.39757237       0.60000000      -0.78290634      -0.41010347       0.26650745
Cr       3.76259556       1.74006717       9.28847008       0.60000000      -0.09481617      -0.10710495       0.04932053
Mn       5.55214383      -0.06789770       9.34916321       0.60000000       0.40110313      -0.16902668      -0.15219711
Cr       5.64227650       1.67891535       7.46009439       0.60000000       0.46257619       0.61038855      -0.07363739
Ni       3.75588628       3.64156930       0.06240169       0.60000000       0.04701209       0.19141653      -0.38192892
Fe       3.79648479       5.37999936       1.70974888       0.60000000      -0.21758841      -0.82122102       0.21590133
Co       5.63290870       3.55262855       1.80863184       0.60000000      -0.06342776       0.59869733       0.34230175
Co       5.54597015       5.52183884      -0.07099594       0.60000000       0.21406046      -0.74263586       0.23383029
Fe       3.81961467       3.60963990       3.69435200       0.60000000       0.20454013      -0.07568697      -0.35089566
Fe       3.84853768       5.34256306       5.56373868       0.60000000      -0.23783081       0.16751998      -0.25572804
Fe       5.62229741       3.67226319       5.63502494       0.60000000       0.66456842      -0.30612035      -0.56913153
Co       5.65493506       5.40505575       3.67919031       0.60000000       0.10707189      -0.84250872      -0.43491991
Cr       3.68120976       3.51835343       7.32818023       0.60000000       1.04837071       0.26561925       0.74665610
Fe       3.82084079       5.29178096       9.26736799       0.60000000       0.27047432      -0.28070799      -0.16005219
Ni       5.57642369       3.52647330       9.30878837       0.60000000       0.36183524       0.21607179      -0.12279055
Co       5.64664124       5.33768609       7.36561410       0.60000000       0.05649019      -0.13778305       0.44380868
48
Lattice="7.029107444393347 0.02576061727171745 0.027107338972980413 0.02576061727171745 7.193023209346411 0.011252107926516283 0.04066100845947062 0.016878161889774427 10.698028138160709" Properties=species:S:1:pos:R:3:initial_magmoms:R:1:mace_force:R:3 mace_energy=-654.4399078609756 mace_virial="46.54725322230522 -3.063907745673282 -4.15283125375895 -3.063907745673282 44.09198551567684 -2.000663578768385 -4.15283125375895 -2.000663578768385 46.54190359234885" pbc="T T T"
Cr       0.17008643      -0.05833085       0.07047934       0.60000000      -1.83351680       0.47556893      -1.38049576
Cr      -0.01559597       1.81081148       1.70197678       0.60000000       0.65208131       0.88733662       0.16727666
Mn       1.56950652       0.02082156       1.85503518       0.60000000       2.50876654       0.05167754       0.15504362
Mn       1.82017176       1.90523900      -0.06409097       0.60000000      -0.08035025       0.86589358       1.50742123
Ni      -0.05063585       0.02640901       3.63221170       0.60000000       0.82251504       1.36270000      -0.69285962
Ni      -0.12189511       1.91297302       5.26494273       0.60000000       1.16809886      -0.48637631       0.59151261
Mn       1.81732478      -0.22299202       5.47585899       0.60000000       0.16570353       1.11014935      -1.80515633
Cr       2.05863580       1.83605069       3.59961220       0.60000000      -1.82475075       0.48723022      -0.49031157
Mn       0.06787333      -0.00590635       7.14373389       0.60000000       0.07403294       1.25410384       1.07534095
Ni       0.17845546       1.75274492       9.00148143       0.60000000      -1.39749320       0.52627083      -0.70638869
Fe       1.85411114       0.10306929       9.12162049       0.60000000      -0.21900177      -1.35811380      -1.69547770
Cr       1.96620277       1.82649207       7.08236136       0.60000000      -1.74086628      -0.23362343       0.37119509
Cr      -0.05589469       3.73088629      -0.13530536       0.60000000       0.15892391      -1.08770019       0.88988227
Mn      -0.09090891       5.42089637       1.74460092       0.60000000       1.36091313      -0.99298475       0.23331862
Co       1.75207991       3.63176826       1.76310096       0.60000000       0.26948472      -0.85893425      -0.39755187
Co       1.72413331       5.36059458       0.03953762       0.60000000       1.04572948       0.02794446      -0.16545335
Ni       0.10016784       3.69344462       3.50297535       0.60000000      -0.86881637      -1.56554121       0.36995233
Cr      -0.06880172       5.53910717       5.20895971       0.60000000       1.15397532      -2.18732676       1.94256821
Fe       1.76386303       3.54211481       5.35638459       0.60000000      -0.13792979       1.09065296       0.26978137
Cr       1.65630693       5.29479680       3.46449585       0.60000000       2.05246262       1.24283908       0.14604897
Fe      -0.01919179       3.66930528       7.26412747       0.60000000       0.56143949      -1.36580745      -1.69302879
Fe       0.13635434       5.31488880       8.85291741       0.60000000      -1.09020955       2.17797011       1.37082379
Cr       1.76068679       3.72936338       8.90285445       0.60000000       1.55613237      -1.04308353       0.57413179
Co       1.76224058       5.43913807       7.28703867       0.60000000       0.81895282      -0.13320715      -1.61033818
Cr       3.56635265       0.02174587      -0.14191701       0.60000000       0.08580091      -0.52137920       1.07477938
Ni       3.72795234       1.69370044       1.65862931       0.60000000      -2.19267436       1.05979237       0.93404463
Cr       5.31877746       0.01532133       1.82640505       0.60000000      -0.55374491      -0.37690523      -0.28375803
Co       5.25174173       1.85718911       0.03947771       0.60000000       0.98235897       0.01362394      -1.46836207
Co       3.56231820       0.11766429       3.65078290       0.60000000       0.28222458      -1.67181213      -0.94505897
Cr       3.50802980       1.70820462       5.35848375       0.60000000       1.45609059       1.17092848       0.44340268
Mn       5.35697570      -0.06677945       5.44142070       0.60000000      -1.50096994       1.73323299      -0.18461001
Mn       5.35673119       1.98033736       3.44484246       0.60000000      -0.46870186      -0.68136247       1.04004729
Fe       3.59399537       0.04280381       7.24953316       0.60000000       0.22377343      -0.29545490      -0.07832092
Fe       3.53559054       1.87973737       8.95787071       0.60000000       1.17652557       0.15828912      -0.43115617
Co       5.34431769       0.01791885       8.90816262       0.60000000       0.48957776       0.45352806       0.41178677
Co       5.43353473       1.88336426       7.24370138       0.60000000      -0.76959106      -0.13426757      -0.29971851
Co       3.58746547       3.63745666       0.05472905       0.60000000      -0.59359702      -0.58421558      -0.63341339
Co       3.40978883       5.29147639       1.67156808       0.60000000       0.54622953       1.36098632       1.03646643
Ni       5.29934052       3.68757409       1.75283718       0.60000000       0.22303772      -0.30461809      -0.13537316
Mn       5.20805490       5.35657071       0.08301964       0.60000000      -0.26653141       1.35400096      -1.58406484
Ni       3.67990507       3.67871011       3.39793565       0.60000000      -1.22352956      -0.09640471       1.32636131
Ni       3.49460095       5.36419252       5.30250063       0.60000000       0.68545259      -0.45642400       0.41097398
Co       5.37448703       3.68097810       5.34824596       0.60000000      -0.70455874      -0.19371865       0.54757505
Mn       5.38710592       5.47457824       3.60272492       0.60000000      -2.11756335      -0.90547123      -0.72484371
Fe       3.57800160       3.60518572       7.16500921       0.60000000       0.45875884       0.59626051      -0.83254787
Ni       3.57082572       5.47424754       8.77778454       0.60000000      -0.09937914      -0.58458592       1.58723579
Fe       5.28584308       3.69474493       8.92371790       0.60000000      -0.37955729      -1.21850035       0.47181973
Fe       5.36884281       5.39401999       7.23772575       0.60000000      -0.91570919      -0.12316139      -0.71050103
32
Lattice="7.393102904658896 0.009609869680208862 -0.026478302413933594 0.009609869680208862 7.241607008671765 0.022900721035882612 -0.026478302413933594 0.022900721035882612 7.4500513481432105" Properties=species:S:1:pos:R:3:initial_magmoms:R:1:mace_force:R:3 mace_energy=-437.63030544989635 mace_virial="-9.691673703071658 0.11667282003741385 1.5480310741869114 0.11667282003741385 -8.848717390139775 -1.4919460875562462 1.5480310741869114 -1.4919460875562462 -9.23122185511869" pbc="T T T"
Cr      -0.02239595       0.02150534       0.06740246       0.60000000       0.24070959      -0.15063554      -1.35892362
Mn      -0.01647914       1.80930132       1.90179493       0.60000000      -0.09869618      -0.36523990       0.23526233
Cr       1.82367676       0.10892804       1.86142216       0.60000000       0.27657301      -0.25900866       0.19063917
Co       1.79226181       1.76118523       0.00555535       0.60000000       0.49202649       0.20323474      -0.63384478
Co       0.04600205      -0.04109424       3.72212028       0.60000000      -0.40060828       0.53909502       0.82372681
Ni      -0.01864337       1.84574680       5.61001815       0.60000000      -0.08901690      -0.26589149      -0.34841935
Ni       1.84010383       0.03511541       5.60359505       0.60000000      -0.05499540      -0.21535160      -0.10271301
Ni       1.83722325       1.83808329       3.77213872       0.60000000      -0.07744259      -0.16916599      -0.03182185
Mn       0.01014752       3.60128445      -0.04155485       0.60000000       0.36572469       0.03284198      -0.24328751
Mn      -0.10508334       5.47591056       1.92674441       0.60000000       0.83046753       0.33638826      -0.51156857
Cr       1.90374526       3.57716077       1.81609615       0.60000000      -0.32039369      -0.09045285       0.02411533
Fe       1.88444990       5.43521358       0.08179063       0.60000000       0.15500315       0.11715623      -1.24375503
Mn      -0.05147512       3.68501292       3.69363237       0.60000000       0.51113664      -0.71270853       1.59292331
Ni       0.05412778       5.44956942       5.61412570       0.60000000      -0.42642277       0.12447659       0.02136518
Ni       1.83181336       3.60357665       5.57304325       0.60000000       0.10314246       0.32597199       0.32425008
Cr       1.84203157       5.41940751       3.70009990       0.60000000       0.02646690       0.36400004       0.51393711
Co       3.64146457      -0.02027091      -0.00524320       0.60000000       0.25919707      -0.10555211      -0.66913846
Mn       3.74257702       1.83942841       1.81717556       0.60000000      -0.32802428      -0.23033240       0.34260976
Cr       5.55495635      -0.02049822       1.83259130       0.60000000      -0.37066525       0.49839666       0.24054377
Fe       5.50664690       1.81724945       0.00122468       0.60000000       0.00396746      -0.20954864      -0.88808652
Fe       3.71451680      -0.00200388       3.66547696       0.60000000       0.09157127       0.07930332       1.32703780
Cr       3.60416551       1.88523467       5.57295313       0.60000000       0.24877706      -0.86329460       0.07653079
Ni       5.62531297      -0.01181511       5.51907343       0.60000000      -0.47478551       0.03346725       0.12784963
Ni       5.56089045       1.81899003       3.69169318       0.60000000      -0.15462263      -0.29394129       0.60554324
Co       3.75819736       3.58634937      -0.03149270       0.60000000      -0.17808408       0.45804097      -0.38300989
Mn       3.70187752       5.43365534       1.84279132       0.60000000      -0.13776263       0.18702368       0.20118057
Cr       5.50553739       3.66466459       1.95823910       0.60000000       0.24297419      -0.35367081      -0.72350923
Fe       5.52904243       5.40020364       0.05835921       0.60000000      -0.41468289       0.31611742      -1.61604990
Fe       3.71467483       3.67266330       3.74596041       0.60000000      -0.04476034      -0.16594895       0.58075635
Co       3.67679177       5.38697028       5.59559159       0.60000000       0.19599211       0.43718047       0.28914486
Fe       5.52962299       3.63127539       5.55639364       0.60000000      -0.27492567       0.27309136      -0.13437858
Co       5.53570114       5.51513426       3.66733084       0.60000000      -0.19784055       0.12495739       1.37109022
48
Lattice="7.048214952301981 -0.11575312574656642 -0.035496427912100816 -0.11575312574656642 7.1050490018968615 -0.0866071732353382 -0.05324464186815123 -0.1299107598530073 10.58604605886835" Properties=species:S:1:pos:R:3:initial_magmoms:R:1:mace_force:R:3 mace_energy=-656.3003681879408 mace_virial="45.10635330294753 13.409713470476717 4.656720361650323 13.409713470476717 44.86209164222328 10.566362923943785 4.656720361650323 10.566362923943785 44.05467149637317" pbc="T T T"
Fe      -0.03817702      -0.00194330       0.05674671       0.60000000      -0.35241185      -0.09352755      -0.70768370
Fe      -0.01404850       1.76706958       1.79972999       0.60000000      -0.98792762       0.40829282      -0.43287986
Cr       1.71562923      -0.13433075       1.73892436       0.60000000       0.26719434       0.36027421       0.34071631
Mn       1.72244318       1.79759351       0.05617628       0.60000000      -0.66055571      -0.51545791      -1.10409327
Mn      -0.07076865       0.05702729       3.59224461       0.60000000       0.88523700      -1.04026008      -0.53771316
Cr      -0.02123187       1.72668566       5.36964707       0.60000000      -0.52924774       0.17123501      -0.64009364
Ni       1.73923273      -0.11241602       5.29031072       0.60000000       0.34735018       0.14438150       0.05672882
Cr       1.66077602       1.72359527       3.49429685       0.60000000       0.49808942      -0.16853059       0.45990795
Ni      -0.02161637      -0.07153340       7.01528105       0.60000000      -0.42315149       0.13237568       0.46929534
Co      -0.01972497       1.62769740       8.83639939       0.60000000      -0.61486913       0.35897996      -0.21345058
Mn       1.65407983      -0.12165455       8.78038373       0.60000000       0.35091251       0.36181830       0.05893555
Co       1.69992478       1.63507067       6.93949443       0.60000000       0.43171325       0.55369483       0.74204250
Co      -0.10217400       3.55589700      -0.01755956       0.60000000      -0.20947308       0.00017139      -1.04499119
Cr      -0.15425185       5.22215271       1.66487272       0.60000000       0.51246811       0.24946640       0.76035238
Cr       1.68740683       3.47704944       1.68017201       0.60000000      -0.17183706       1.03995243       0.56137420
Fe       1.71012149       5.33937477      -0.04333059       0.60000000      -0.73488347      -0.72992139      -0.03228389
Ni      -0.11278382       3.51291400       3.47819944       0.60000000       0.25794516       0.24586746       0.22867322
Cr      -0.17031246       5.29999779       5.23223096       0.60000000       0.48536893      -0.20341761      -0.63940357
Co       1.65864335       3.51634785       5.27223091       0.60000000      -0.47591223      -0.66531977      -0.22397682
Ni       1.69258884       5.30549957       3.48438360       0.60000000      -0.60618024      -0.41291084      -0.16478364
Mn      -0.14372255       3.45086715       7.05507578       0.60000000       0.58347163      -0.28733669       0.13321584
Co      -0.16155093       5.22261685       8.77336341       0.60000000       0.02065930       0.00064699       0.69452190
Fe       1.71845931       3.46822621       8.80629506       0.60000000      -0.94696354      -0.60869001      -0.34916415
Fe       1.63280821       5.25066064       7.00536868       0.60000000      -0.59351873      -0.36140512      -0.16773718
Mn       3.51814705      -0.00263849       0.00271761       0.60000000       0.20770567      -0.68356996       0.09910327
Mn       3.45638167       1.74826724       1.71518786       0.60000000       0.68840649      -0.73588726       0.83460101
Fe       5.30171470      -0.16936052       1.73743319       0.60000000      -0.27891012       0.75025944      -0.26632915
Fe       5.21959478       1.65073838      -0.12477141       0.60000000       0.77673601       0.84627007       0.16186623
Fe       3.59313930      -0.10678144       3.52095843       0.60000000      -1.25038816       0.16605143      -0.22745982
Fe       3.51359845       1.64893908       5.27471427       0.60000000      -0.55486142       0.23249402       0.14302970
Mn       5.20519784      -0.14346599       5.25011641       0.60000000       0.12584448      -0.25793793       1.09333076
Co       5.26001854       1.65380956       3.42496563       0.60000000      -0.29429538       0.32354438       0.14020748
Ni       3.41438373      -0.18500751       7.06966014       0.60000000       0.62382434       0.51340845      -0.33874848
Ni       3.46826599       1.62670357       8.70129711       0.60000000      -0.54880715      -0.23451360       0.46130384
Ni       5.13378168      -0.21989713       8.78196894       0.60000000       1.23422596       0.70786810      -0.20821409
Co       5.19769375       1.61738188       7.00244104       0.60000000      -0.20602836      -0.53240991       0.57058185
Fe       3.41869207       3.45942216      -0.05508572       0.60000000       1.33593887       0.73924816       0.00701462
Co       3.43153596       5.24644630       1.77313369       0.60000000      -0.15930822      -0.04446239      -1.21469465
Co       5.20898718       3.44904375       1.65443151       0.60000000      -0.11203293      -0.37628019      -0.20712933
Co       5.18500592       5.26319683      -0.06863896       0.60000000       0.08764300      -0.61132013      -0.24183701
Mn       3.44222583       3.46732450       3.46990929       0.60000000      -0.00688825       0.27777069       0.37567237
Cr       3.33493816       5.07406267       5.30341080       0.60000000       0.69293034       1.17635245      -0.48400097
Ni       5.23513071       3.39846790       5.15309092       0.60000000      -0.28632039      -0.23307089       0.62439094
Cr       5.13022339       5.25328285       3.32479970       0.60000000       0.91848050      -0.78081303       1.14098634
Fe       3.41767079       3.44302555       7.00208143       0.60000000       0.10122366      -0.91254586       0.07237444
Cr       3.42332429       5.15736465       8.83540697       0.60000000      -0.35339828      -0.07297916      -0.69147627
Ni       5.14250761       3.30258173       8.76283699       0.60000000       0.56579179       0.39507897       0.23082926
Mn       5.22143183       5.15311347       7.00803906       0.60000000      -0.64099038       0.40706471      -0.32291170
48
Lattice="7.105821991192408 -0.07820557935880565 0.06799421170636805 -0.07820557935880565 7.1935920073688715 0.027620990719704263 0.10199131755955207 0.04143148607955639 10.948179135361071" Properties=species:S:1:pos:R:3:initial_magmoms:R:1:mace_force:R:3 mace_energy=-655.1467907237676 mace_virial="32.85826483620216 7.988033746460605 -5.4257612709008125 7.988033746460605 27.886902169886845 -3.7046846084960827 -5.4257612709008125 -3.7046846084960827 26.4334566331516" pbc="T T T"
Co      -0.20174832      -0.03255422      -0.04102506       0.60000000       1.57189020      -0.10485905       0.17532668
Mn      -0.07602744       1.82106590       1.64212478       0.60000000      -0.02788440      -0.62877597       2.10841866
Co       1.62703677       0.21642076       1.86156251       0.60000000       0.26004985      -2.20344647      -0.77356073
Co       1.75437691       1.90639202       0.00052843       0.60000000       0.32064638      -1.08219640       0.09573275
Co       0.04804826       0.03138502       3.61226979       0.60000000      -0.93969750      -0.13398265      -0.28535934
Mn      -0.06811254       1.85568369       5.50421147       0.60000000      -0.17147828       0.67222873      -1.26591485
Mn       1.74377893      -0.03474225       5.45778619       0.60000000       1.82658208       1.22003741      -0.44566083
Ni       1.74068506       1.81168290       3.58871082       0.60000000      -0.63619915       0.67550207       0.83646543
Ni       0.22076993       0.14424224       7.16112010       0.60000000      -1.61514877      -0.27055157       1.96435711
Ni       0.07716239       1.79741359       9.17867553       0.60000000      -0.02758959      -0.06337868      -0.33151375
Cr       1.91972786      -0.01301718       9.21744819       0.60000000      -0.75189487       1.40725173      -0.56310843
Fe       1.72876130       1.88571281       7.30269456       0.60000000       0.85811172      -0.09598447       0.62175353
Cr      -0.16297388       3.40400361       0.12464525       0.60000000      -0.31936412       2.31771925      -1.76442145
Fe      -0.13372480       5.39773985       1.81638895       0.60000000       0.47033147       1.41607182       0.18295667
Fe       1.61430041       3.71685896       1.82841342       0.60000000       0.85930506      -0.58594821       0.36296573
Cr       1.72690694       5.40867437      -0.06296826       0.60000000      -1.06921149       0.15293771       1.32595206
Ni       0.01649142       3.64186318       3.57477907       0.60000000      -0.55295385      -0.62639158       0.64268033
Mn       0.08689395       5.57057719       5.64563331       0.60000000      -1.25432062      -2.44350885      -1.96568610
Co       1.69553543       3.71092358       5.50095607       0.60000000      -0.17591323      -1.39053495       0.30659704
Ni       1.62871280       5.26316280       3.82102367       0.60000000       0.58493601       1.32023382      -1.73654019
Cr       0.04730190       3.67399191       7.44415490       0.60000000      -0.96368033      -0.75343861      -0.66323424
Fe       0.09779106       5.54309753       9.02422684       0.60000000      -2.07869392       0.08587405       2.10806576
Cr       1.85981158       3.61664001       9.15275873       0.60000000      -0.43683344      -0.84401083       0.59198918
Mn       1.72311355       5.31743026       7.44995228       0.60000000       1.57716626       0.81005455      -1.36031087
Fe       3.57048638      -0.11725591       0.07594989       0.60000000      -0.78013958       0.35420951       0.49808982
Mn       3.54452019       1.68396967       1.95150010       0.60000000      -0.44912016       1.07358810      -1.46258147
Co       5.35972706      -0.00867801       1.80061320       0.60000000       0.08436012      -0.40797542       1.26710135
Cr       5.22333619       1.67601427      -0.05193164       0.60000000      -0.50036097       0.71536714       0.68803062
Cr       3.45904329       0.00066640       3.60791120       0.60000000       0.58722932      -0.73988828       0.34469358
Mn       3.48516117       1.86819562       5.53410826       0.60000000       0.53785356      -0.85298210       0.38789153
Fe       5.38191449      -0.25090458       5.44538287       0.60000000      -0.52842782       1.45925500      -0.10905322
Fe       5.21058953       1.91317971       3.66247457       0.60000000       1.41368425      -1.38749465       0.74162812
Co       3.68925231      -0.10333705       7.33138792       0.60000000       0.02867655       0.57393877      -0.16920457
Cr       3.66423125       1.72262629       9.18225830       0.60000000      -0.93906859       0.36393456      -0.27592795
Ni       5.41109949      -0.00895654       9.33124572       0.60000000      -0.13879932      -1.07118784      -1.88438052
Fe       5.32978788       1.80296768       7.50694951       0.60000000       0.32282385      -0.58540294      -0.51535406
Mn       3.43889440       3.69113621       0.03108416       0.60000000       0.67017026      -1.53054632      -0.61650746
Mn       3.69890819       5.14322702       1.92394859       0.60000000      -3.22472672       2.78331553       1.54812457
Mn       5.27076943       3.61268880       2.01274267       0.60000000       0.93002364      -1.85112756      -1.15600546
Ni       5.09370229       5.42066928       0.25112358       0.60000000       1.91011501      -0.85268348      -2.19833382
Fe       3.45923660       3.52760321       3.80353794       0.60000000      -1.12516138       0.64712081      -0.89036763
Cr       3.39280022       5.38136462       5.50503257       0.60000000       0.60296649      -0.06233687       0.61066352
Co       5.22370657       3.68453452       5.31050238       0.60000000       1.13191660      -0.77141127       2.23702372
Ni       5.21461074       5.20923055       3.72612831       0.60000000       1.13422946       2.22668912      -0.06176328
Ni       3.56769924       3.56280630       7.39896800       0.60000000       0.46577021       0.23621206      -0.48550188
Fe       3.44841933       5.40351958       9.09688505       0.60000000       2.28447451       0.31324202       0.01707860
Co       5.33711256       3.61888878       9.18744234       0.60000000       0.14704430       0.61475480       0.19557735
Fe       5.50308068       5.38557429       7.32261382       0.60000000      -1.87368908      -0.09949358       1.12112839
48
Lattice="7.235220977657839 0.050886918398787284 0.006175663319032007 0.050886918398787284 7.325712829576015 -0.09673044903264265 0.00926349497854801 -0.14509567354896397 11.207666687731724" Properties=species:S:1:pos:R:3:initial_magmoms:R:1:mace_force:R:3 mace_energy=-661.0829822544749 mace_virial="-4.066488121754674 -4.077681379859772 -0.06394822835205864 -4.077681379859772 -8.941796443962643 8.981532030954215 -0.06394822835205864 8.981532030954215 -12.948132575765623" pbc="T T T"
Mn      -0.02561843      -0.04567596       0.04123127       0.60000000       0.63393895       1.23791535      -0.33258710
Ni      -0.00053323       1.79428414       1.81200606       0.60000000       0.10345418       0.04968402       0.11048499
Fe       1.83150326       0.00487847       1.83781241       0.60000000       0.01317353      -0.11714579       0.19516348
Co       1.86095454       1.83026001      -0.01681674       0.60000000      -0.05946317       0.13510935      -0.16149196
Ni       0.02006448      -0.05549394       3.78501071       0.60000000      -0.07638629       0.12019618      -0.14262438
Co       0.03202172       1.76327637       5.60233820       0.60000000      -0.19555992      -0.07889296      -0.00415559
Co       1.82190550      -0.01927932       5.59313993       0.60000000       0.00879924      -0.12906189      -0.16518080
Cr       1.80652184       1.79801687       3.73523648       0.60000000       0.03157178      -0.35964847      -0.18647073
Cr       0.03264134      -0.12565655       7.43779123       0.60000000      -0.31333016       0.17504344       0.18791167
Ni      -0.00181636       1.69606791       9.32845725       0.60000000       0.09397970       0.18551346       0.01446806
Cr       1.84515498      -0.09468298       9.33491876       0.60000000      -0.07211383      -0.10896236       0.26004086
Mn       1.82354003       1.75138884       7.47445180       0.60000000      -0.52412598       0.39306744      -0.03167156
Mn      -0.00690536       3.66353267      -0.06441475       0.60000000       0.99114068      -0.82882976       0.28496894
Cr       0.05832886       5.46893293       1.78407254       0.60000000      -0.29162085       0.17014140       0.04095345
Ni       1.81303536       3.66417835       1.86730903       0.60000000       0.22722439      -0.25213490      -0.49151341
Fe       1.84184950       5.44275825      -0.06169157       0.60000000       1.30796096       0.11443523      -0.27607285
Mn      -0.00562112       3.61416627       3.70827162       0.60000000       0.50487428      -0.42442590      -0.52923562
Co       0.01559728       5.37773865       5.45920579       0.60000000       0.24453218       0.29597722       0.65703251
Fe       1.85713309       3.58696925       5.51754434       0.60000000      -0.31533604      -0.04332357       0.50205212
Cr       1.85093948       5.42689001       3.68159376       0.60000000       0.12943991       0.62849186      -0.02429084
Cr       0.02079416       3.56230425       7.48828884       0.60000000      -0.04078013      -0.07257623      -0.60059623
Cr       0.04431593       5.36208956       9.27220014       0.60000000       0.12679443       0.05196671      -0.02036167
Co       1.82196171       3.56036311       9.31161984       0.60000000       0.67034694      -0.00325909       0.23886238
Fe       1.83945288       5.40934757       7.38299709       0.60000000       0.19991345      -0.73890143       0.18539433
Co       3.64809708       0.08704778       0.02164544       0.60000000      -0.63793063      -0.53631223       0.01202659
Mn       3.62850267       1.82718434       1.85966248       0.60000000      -0.37829484       0.39281391       0.36628787
Co       5.41480265       0.06892044       1.89758900       0.60000000      -0.01551488      -0.49880900       0.11087344
Mn       5.38554280       1.88827779      -0.05089224       0.60000000       0.34657782      -0.26775596      -0.07928322
Ni       3.64964998      -0.02502513       3.75195393       0.60000000      -0.25120178      -0.11457470      -0.05066902
Fe       3.64744143       1.78030851       5.59123355       0.60000000       0.07543705       0.14611560      -0.10883703
Fe       5.43021357      -0.04629723       5.57625927       0.60000000       0.43930620       0.25039513       0.01260675
Cr       5.43585307       1.84406600       3.76529790       0.60000000       0.15644446      -0.45583701      -0.45739068
Mn       3.64376901      -0.05608602       7.48073798       0.60000000       0.34592295      -0.88765716      -0.04366337
Fe       3.61474211       1.72773675       9.30159557       0.60000000      -0.17934248       0.98956248       0.41462256
Cr       5.41775775      -0.08741036       9.32847829       0.60000000       0.11883165      -0.09046481      -0.10501093
Co       5.44810313       1.75519056       7.46657002       0.60000000      -0.20963655       0.32685171      -0.19760067
Ni       3.65506219       3.68332754      -0.05273347       0.60000000      -0.20560561       0.06955717       0.02680160
Fe       3.64985653       5.49167761       1.80033640       0.60000000      -0.19211477       0.09574380       0.26985829
Fe       5.43255186       3.68044445       1.80255493       0.60000000      -0.17025172       0.09744126       0.36517115
Mn       5.47129156       5.55801065      -0.11209679       0.60000000      -1.52568749      -0.12701683       0.16218586
Ni       3.63886039       3.66125456       3.68668515       0.60000000       0.02394953      -0.23064498      -0.06153111
Mn       3.63109214       5.39799197       5.52802509       0.60000000       0.30743494       0.47137192      -0.05442217
Fe       5.45936902       3.61946044       5.53310324       0.60000000       0.05624484      -0.19150394       0.92827986
Cr       5.47847036       5.44228573       3.66900037       0.60000000      -0.39920777       0.59701624      -0.33724116
Ni       3.65059165       3.57237936       7.40868764       0.60000000      -0.00250041       0.15886376       0.14370184
Ni       3.61967602       5.37383575       9.25902024       0.60000000      -0.01829781      -0.28093116      -0.08445303
Fe       5.45252907       3.58077508       9.27806164       0.60000000      -0.80998550      -0.09077821      -0.76058893
Co       5.46009564       5.41210587       7.39355200       0.60000000      -0.27300541      -0.22382632      -0.18280453
48
Lattice="6.9183142047066655 -0.06318174139587175 0.0289233911117292 -0.06318174139587175 6.8846074332856295 0.06472867945151076 0.043385086667593796 0.09709301917726615 10.595475997279905" Properties=species:S:1:pos:R:3:initial_magmoms:R:1:mace_force:R:3 mace_energy=-654.4229103036515 mace_virial="74.79992777770738 6.915783376286862 -2.918019160554851 6.915783376286862 77.3029500102106 -8.103706552755787 -2.918019160554851 -8.103706552755787 69.19851424153877" pbc="T T T"
Ni       0.00888267      -0.03541875      -0.03698974       0.60000000      -0.04740252       0.11006515       0.58810078
Co      -0.01147973       1.73567519       1.83839010       0.60000000      -0.00285715       0.07623446      -0.16520056
Cr       1.78422842       0.00979425       1.83670739       0.60000000      -0.42647334       0.14319111      -0.48831441
Cr       1.65205336       1.72948176       0.03682679       0.60000000       0.42608045      -1.08021608       0.24826379
Ni       0.06864279       0.02175268       3.55994919       0.60000000      -0.18404143       0.29633979      -0.11326120
Fe      -0.00892383       1.78228462       5.29758225       0.60000000       0.03547099      -0.51971869      -0.33025599
Cr       1.76600506       0.04042135       5.34521627       0.60000000       0.06651443      -0.00971324      -0.31175999
Ni       1.74176454       1.78828525       3.63333295       0.60000000      -0.83262408       0.12503815      -1.19604204
Co       0.01906155       0.06230186       7.05404028       0.60000000      -0.08447029      -0.18328210      -0.19442685
Cr       0.02873808       1.81356475       8.84190966       0.60000000      -0.52419378      -0.08435131      -0.30621303
Fe       1.68131229       0.07987986       8.80361500       0.60000000       0.35352023      -1.20611389       0.61234616
Mn       1.75834157       1.74308197       7.16454950       0.60000000       0.02966156       0.44453923      -1.26994298
Mn       0.04729320       3.42124757       0.03525581       0.60000000      -1.53719705       0.47957030       0.43980783
Ni      -0.03922515       5.26003237       1.83271443       0.60000000       0.83434412      -0.05744149      -0.28277265
Fe       1.68289088       3.42015623       1.76827517       0.60000000       0.11484119       0.67059218       0.81511308
Ni       1.67486699       5.09749892       0.03953728       0.60000000       0.28871510       1.19222057       0.14503213
Fe      -0.02916256       3.68545663       3.51143029       0.60000000       1.07005704      -1.84751575       0.41557359
Cr       0.00638941       5.22319854       5.27702983       0.60000000      -0.43858176       0.25044327       0.59582897
Co       1.69727427       3.45909770       5.38462103       0.60000000       0.07218271      -0.06228748      -0.90400128
Co       1.81619331       5.19939919       3.58028953       0.60000000      -0.89336406      -0.12737722       0.48463779
Mn      -0.01168578       3.46650165       7.06156226       0.60000000      -0.58644413       0.63317880       0.39908204
Ni       0.00443394       5.17654218       8.87092484       0.60000000      -0.22834290       0.37076799      -0.10075142
Fe       1.77393836       3.49275246       8.98287392       0.60000000      -0.25161134       0.82992879      -1.40451531
Fe       1.69483188       5.13894319       7.05019873       0.60000000      -0.57548168       0.72178240       0.82226944
Ni       3.44480596      -0.01334339       0.00719262       0.60000000       0.13077985      -0.49843335      -0.00446581
Mn       3.48043626       1.70408015       1.79422763       0.60000000       0.14567099       0.32941156      -0.52691094
Cr       5.23873389       0.02047286       1.95056036       0.60000000      -0.23229535       0.05956560      -1.56186254
Co       5.18955502       1.65156250      -0.02676123       0.60000000       0.13913493       0.00031424       0.99012023
Fe       3.48675669       0.05293083       3.53941959       0.60000000      -0.39104537      -0.98958405       0.20095342
Mn       3.46341705       1.79023623       5.15734773       0.60000000      -0.06429059      -0.60032627       2.44648651
Co       5.19701049       0.00446819       5.25176026       0.60000000       0.10751415      -0.33395926       0.58266065
Fe       5.16505887       1.73723947       3.57168288       0.60000000       1.60838277       0.11810263      -0.32575214
Co       3.48397611       0.02700247       7.15604592       0.60000000       0.11722708       0.50772306      -0.73126497
Mn       3.38280705       1.80231976       8.90617306       0.60000000       1.33882555      -0.71090050       0.00460076
Fe       5.26461519       0.06748232       8.84637981       0.60000000      -0.03956600      -0.33697945       0.16419695
Co       5.19499545       1.65500115       7.03492119       0.60000000      -0.33235573       0.16006770       0.14476537
Cr       3.41534748       3.38033401       0.07643015       0.60000000       0.44950074       0.42085047       0.29582111
Co       3.37633130       5.15331233       1.81965684       0.60000000       0.22731214       0.14426997      -0.53310146
Ni       5.27339866       3.49991403       1.85288846       0.60000000      -0.99151357      -1.47499254      -0.62147582
Cr       5.15275535       5.12952411       0.17952473       0.60000000      -0.28740947       0.17923423      -1.13848372
Mn       3.44848525       3.49951650       3.54063794       0.60000000      -0.93738851       0.03500732      -0.09670832
Cr       3.38690413       5.22918966       5.45420028       0.60000000       0.64715884       0.06716901      -0.77545515
Cr       5.18210239       3.40370557       5.25699064       0.60000000       0.12854916       0.75065725       1.11182308
Fe       5.07428824       5.09962587       3.50191428       0.60000000       0.56268181       1.57030675       0.90942224
Mn       3.45812683       3.49881331       7.05372729       0.60000000       0.45423202      -0.82492905      -0.26533095
Mn       3.50663780       5.14962696       8.78492369       0.60000000      -0.99290118       1.11190334       1.59074898
Mn       5.13115283       3.46187491       8.85508309       0.60000000       0.82700116      -0.32787001       0.08429505
Ni       5.15844334       5.26081118       7.13861910       0.60000000       0.70649229      -0.52248357      -0.44368041
32
Lattice="7.393133089561048 -0.09884024125304208 0.04634444949284194 -0.09884024125304208 7.248538642630713 -0.02233062223443583 0.04634444949284194 -0.02233062223443583 7.4275516109917294" Properties=species:S:1:pos:R:3:initial_magmoms:R:1:mace_force:R:3 mace_energy=-436.16671227033186 mace_virial="-7.803501622049297 6.516589424513945 -2.202943668880855 6.516589424513945 -7.8096701395540595 1.4783577293954335 -2.202943668880855 1.4783577293954335 -10.531968048989075" pbc="T T T"
Cr      -0.02179437       0.00196364      -0.06913108       0.60000000       0.38280521      -0.29637226       0.42703763
Ni      -0.00867204       1.82859170       1.92969819       0.60000000       0.44147961      -0.25417858      -0.33936142
Co       1.85047870      -0.07483288       1.88293198       0.60000000       0.26322103       0.32578721       0.16723629
Fe       1.87463612       1.67566608       0.01549107       0.60000000      -0.71089134       0.80971284       0.95298239
Fe       0.01457233      -0.09013977       3.77722902       0.60000000       0.70577610       0.62765561      -0.47000862
Mn       0.01958984       1.68576095       5.62340282       0.60000000       0.83228889       1.84194127      -0.77699823
Ni       1.86734827      -0.09941689       5.54712661       0.60000000       0.03714785       0.14314832       0.39533409
Co       1.89471785       1.75177357       3.65890594       0.60000000      -0.46567694       0.29994489      -0.18887849
Co      -0.01839955       3.59966654      -0.04224429       0.60000000       0.57686318       0.11132721       0.10331630
Cr      -0.04706235       5.50164217       1.79478234       0.60000000       0.06515548      -0.56878254       0.39009917
Co       1.83396332       3.59858688       1.88929391       0.60000000      -0.18804664      -0.18383710       0.18411327
Co       1.80369785       5.39165537       0.00035218       0.60000000      -0.22824662      -0.18788792      -0.36695540
Co      -0.03083496       3.65978203       3.63221987       0.60000000       0.97199838      -0.20716552       0.46930527
Ni      -0.05136616       5.37446826       5.56442132       0.60000000       0.33045673      -0.05478927       0.05068033
Ni       1.82452265       3.49330074       5.64284450       0.60000000      -0.06515979       0.40584991      -0.34073493
Fe       1.81922709       5.47851631       3.82780816       0.60000000      -0.65478923      -1.81298281      -0.67835819
Mn       3.69239688      -0.03891547      -0.00783250       0.60000000      -0.27321133      -0.38059250       0.28222166
Ni       3.68824052       1.69773274       1.91461606       0.60000000      -0.38945564       0.29027659      -0.16795581
Mn       5.51323024      -0.06822608       1.81119810       0.60000000       0.45783432       0.68896045       0.04374344
Ni       5.48024313       1.72326556      -0.02669662       0.60000000       0.30000893       0.09559064       0.49972464
Mn       3.69709512      -0.14670288       3.79960332       0.60000000      -0.08010702       1.19750561      -0.58975667
Cr       3.72120421       1.73603776       5.60616938       0.60000000      -0.68732328       0.22946465      -0.03141930
Fe       5.63710581      -0.02884751       5.60992596       0.60000000      -0.66421205      -1.34500146       0.14139819
Cr       5.49196751       1.76877730       3.80340824       0.60000000       0.73041365      -0.36329367      -0.60242953
Mn       3.67501759       3.61061573       0.04667810       0.60000000      -0.59174872      -0.59893126       0.31641920
Ni       3.69921800       5.32641536       1.88627279       0.60000000      -0.70630162       0.31356588      -0.08221465
Cr       5.60828603       3.53207066       1.80632271       0.60000000      -0.46527152      -0.46215398       0.19496670
Fe       5.45004012       5.34086964       0.00253778       0.60000000       0.48191058       0.12917518      -0.68379736
Co       3.70967021       3.54213774       3.64936352       0.60000000      -1.02524546       0.36655139       0.14249529
Fe       3.64766307       5.37518951       5.59060131       0.60000000      -0.28922482      -0.57388205       0.14194150
Cr       5.55115363       3.50071794       5.61072671       0.60000000       0.32131914       0.62300324      -0.10542010
Mn       5.44459372       5.37726698       3.69351746       0.60000000       0.58623295      -1.20960995       0.52127335
32
Lattice="7.113748755184008 0.034048462713947895 -0.020493159017628382 0.034048462713947895 7.172863586580756 -0.03259371841142429 -0.020493159017628382 -0.03259371841142429 7.109453000316525" Properties=species:S:1:pos:R:3:initial_magmoms:R:1:mace_force:R:3 mace_energy=-435.33235166287955 mace_virial="26.030784482708597 -3.8438592015332214 2.100726804499489 -3.8438592015332214 26.758225892801605 4.14728548091664 2.100726804499489 4.14728548091664 25.745304064417393" pbc="T T T"
Cr      -0.01129247       0.10757749       0.07730662       0.60000000       0.56300168      -1.64202189      -0.88628819
Mn       0.08078577       1.69346192       1.82354494       0.60000000      -0.99835139       1.42788136       0.77953727
Mn       1.82954003       0.06656015       1.58283246       0.60000000       0.41071841      -0.91809018       1.11341089
Cr       1.65202744       1.82826493      -0.07910740       0.60000000       1.53752200       0.23060638       0.19388584
Ni       0.02402637      -0.01806796       3.62445690       0.60000000      -0.38601999      -0.30781570      -0.86722442
Mn      -0.04421077       1.69327567       5.36785731       0.60000000       0.64496173       0.16079568      -1.00122307
Ni       1.74659647      -0.10020301       5.18178333       0.60000000       1.03555896       0.37297306       1.36865865
Cr       2.01770708       1.76215997       3.52706084       0.60000000      -2.03711363      -0.34541642       0.16083589
Co      -0.12737290       3.51320677      -0.02477117       0.60000000       0.68552166       0.50315122      -0.10245247
Mn       0.04858968       5.43369026       1.69981300       0.60000000       1.37990555      -0.22103634       0.50095936
Ni       1.83008464       3.67706277       1.72054985       0.60000000      -0.85172195      -1.01917868      -0.08390922
Ni       1.80196962       5.25508228      -0.08817128       0.60000000       0.11635261       0.94677507       0.21048371
Co      -0.09453214       3.62387299       3.52776846       0.60000000       1.44781906      -0.09259760       0.65642062
Fe       0.13354905       5.37260185       5.37134850       0.60000000      -1.59692498       0.09501352      -0.44171155
Mn       1.82225664       3.58912911       5.23277606       0.60000000      -1.06745872       0.32339940       0.75522550
Cr       1.92223259       5.36826368       3.38897968       0.60000000      -1.25773364       0.61726015       0.74035591
Ni       3.51638727      -0.06332744       0.08232733       0.60000000       0.52729403       0.33490252      -1.49209830
Mn       3.64306155       1.92154398       1.92812997       0.60000000       0.45466117      -0.84420059      -2.20347626
Co       5.28423403      -0.12267869       1.69385028       0.60000000      -0.16946286       2.06161046       1.74450207
Ni       5.37820814       1.61640928      -0.06596552       0.60000000      -1.40124513       1.51300898       0.77824284
Fe       3.61408050      -0.06079760       3.53861075       0.60000000       0.17263592       0.07287623       0.47454624
Fe       3.48417969       1.92211220       5.46554040       0.60000000       1.06687918      -2.05002388       0.37161489
Co       5.24581617      -0.06004349       5.33031691       0.60000000       0.16484288      -0.31356296      -0.11135504
Cr       5.39060504       1.83971808       3.58626659       0.60000000      -0.35086538      -0.99084776      -0.13630896
Cr       3.65522002       3.70252326       0.12462663       0.60000000       0.55728883      -0.63159063      -1.16907397
Fe       3.59974945       5.36210686       1.74715302       0.60000000       0.47810278       0.34627568      -0.10088514
Fe       5.52824632       3.67907022       1.81173082       0.60000000      -1.15129042      -0.60625173      -0.62705245
Ni       5.47546982       5.51158446       0.15280533       0.60000000      -1.16349838      -1.40101865      -2.87567663
Cr       3.51427647       3.61496962       3.59823720       0.60000000       1.30689763       0.63327453      -0.76286345
Co       3.64208789       5.35484049       5.18510566       0.60000000       0.19957930       0.55903011       1.40834400
Fe       5.32794439       3.54621399       5.30375838       0.60000000       0.17259969       1.24191649       0.51981177
Co       5.44621338       5.45370457       3.43835100       0.60000000      -0.49045660      -0.05709783       1.08476369
48
Lattice="6.854300786313146 0.0720265599155556 -0.08826332091318022 0.0720265599155556 6.980213287356728 -0.08086246752524519 -0.13239498136977032 -0.12129370128786778 10.335834388100801" Properties=species:S:1:pos:R:3:initial_magmoms:R:1:mace_force:R:3 mace_energy=-647.352274839516 mace_virial="99.84261875891478 -9.588082626257739 12.3913757374336 -9.588082626257739 95.65375606619037 12.346437847444731 12.3913757374336 12.346437847444731 98.3424541113899" pbc="T T T"
Fe       0.02364184       0.10840631       0.04729238       0.60000000      -1.11247233      -1.24834220      -0.58469357
Fe      -0.02510927       1.74335498       1.85989307       0.60000000       1.24576624      -0.25074527      -2.16898402
Ni       1.64251789       0.08622310       1.64786994       0.60000000       0.81032498      -1.56144228       1.06800590
Cr       1.60532209       1.70852888      -0.01553643       0.60000000       1.54572274       1.17235762      -0.21744645
Co      -0.06289803      -0.09589862       3.38324657       0.60000000       0.82404179      -0.63244785       0.80469020
Mn      -0.12434269       1.60021930       5.09942237       0.60000000       0.51621424       0.03730405       1.57266791
Co       1.45026965      -0.00924100       5.16804806       0.60000000       2.33266878       0.15369831       0.02936250
Fe       1.69467415       1.79379769       3.35532661       0.60000000       0.32541252      -0.63413082       1.30589664
Co      -0.08971737      -0.28710288       6.90445958       0.60000000      -0.68446921       1.63607410       1.11348166
Fe      -0.12492269       1.69065217       8.65874442       0.60000000       0.71140320      -0.84450366      -1.23450023
Ni       1.58808145      -0.18403871       8.61641860       0.60000000      -0.21940639       0.47094053      -0.28322544
Cr       1.70868536       1.75276374       6.80543986       0.60000000      -1.30536587      -1.37483021       0.86995060
Co      -0.03826718       3.46705014      -0.12424362       0.60000000       0.60067573       0.15558238       1.82818490
Co      -0.13987766       5.24166500       1.69443885       0.60000000       2.65009357      -1.23495622      -1.03032355
Fe       1.77706785       3.41806340       1.65464812       0.60000000      -1.84215258       0.61256255       0.62862734
Fe       1.66935014       5.13379947      -0.04836698       0.60000000       0.02540760       1.54578186       0.62413631
Mn      -0.15477053       3.41974805       3.58773673       0.60000000       2.43272354       1.15237812      -0.65227977
Ni       0.08093350       5.22493646       5.15240068       0.60000000      -1.38393855      -0.64811599      -0.74705527
Fe       1.66488385       3.39814533       5.26208518       0.60000000      -0.26707177       0.56618332      -1.48605998
Cr       1.70562485       5.16371804       3.41293919       0.60000000      -0.09887088       0.20487155      -0.99094554
Ni      -0.05899835       3.50995246       6.79825873       0.60000000       0.18604147      -0.94596046       1.27174007
Mn      -0.12335577       5.10059449       8.67741915       0.60000000      -0.09133492       0.75709958      -1.61354102
Co       1.71145830       3.42663993       8.55690796       0.60000000      -0.60929328      -0.16712725       0.20942698
Co       1.70565572       5.09484609       6.84745122       0.60000000       0.13039771       0.66082167       0.44478088
Fe       3.38766445       0.05399759      -0.04269419       0.60000000      -0.27388981      -0.16750367       0.27465092
Ni       3.44692520       1.72437415       1.73343996       0.60000000       0.00240537       0.12413677      -0.28599890
Mn       5.14697204      -0.02687626       1.69126660       0.60000000      -1.04135137       0.76826435      -0.50792877
Cr       5.13199630       1.82959927      -0.01924437       0.60000000      -0.26362435      -0.18517967      -0.41977128
Fe       3.34493482      -0.00655039       3.40687605       0.60000000      -0.15679388       0.36840276       0.65052442
Co       3.38246791       1.88129527       5.13177894       0.60000000       0.79959648      -2.29048391      -0.94182418
Cr       4.98516239       0.00277745       5.05925684       0.60000000       0.66631097      -0.53971479      -0.05938341
Co       5.30774861       1.70961817       3.27247139       0.60000000      -3.78839888      -0.22873049       1.44517755
Mn       3.39761810      -0.08504767       6.81727374       0.60000000      -1.09509992       0.51910561      -0.10684838
Cr       3.31740265       1.62783805       8.51732501       0.60000000      -0.11491052       0.69709517       0.74528188
Co       4.85822949      -0.05378984       8.59919734       0.60000000       2.07233649      -0.36043766       0.04957478
Fe       5.21919349       1.72493866       6.87114014       0.60000000      -0.73665539      -0.69975492      -0.59214249
Mn       3.40794579       3.64320381       0.09431127       0.60000000       1.13379360      -2.61023427      -1.89418556
Mn       3.48773942       5.22648314       1.62442050       0.60000000      -1.00443987       0.83861417       0.65781053
Ni       5.27950223       3.42859400       1.71966156       0.60000000      -1.65769414       0.62493344      -2.24236448
Ni       5.11925239       5.22695476      -0.10264905       0.60000000       0.91866682       0.77740293       0.44014916
Cr       3.47290410       3.56499504       3.47633344       0.60000000      -0.78339093      -1.51707262      -0.95989283
Cr       3.32892823       5.21957528       5.12727186       0.60000000      -0.22923810       0.10641544      -0.76837773
Cr       5.13539786       3.57575703       5.06772412       0.60000000      -0.26334017      -0.91629301       0.48053535
Ni       5.13069307       5.07546312       3.17369576       0.60000000       0.13173583       3.43967706       2.65260427
Mn       3.44039754       3.35801781       6.83351856       0.60000000      -0.62442527       0.76240670       0.27634623
Ni       3.42539793       5.16402617       8.59138550       0.60000000      -1.49986410      -0.13066315      -0.78420186
Mn       5.01863679       3.49276751       8.49984321       0.60000000      -0.24881489      -0.98610720       0.66705761
Co       4.99233273       5.05322520       6.75145639       0.60000000       1.33456771       2.02266754       0.46131013
48
Lattice="7.207201684234611 -0.03292884329747417 -0.010669149974790362 -0.03292884329747417 7.22660723775365 -0.12306157476082676 -0.016003724962185543 -0.18459236214124014 10.934163820813012" Properties=species:S:1:pos:R:3:initial_magmoms:R:1:mace_force:R:3 mace_energy=-658.2270631699442 mace_virial="7.8723433025684475 2.6779493735136337 -0.22907932919500298 2.6779493735136337 9.240643599297941 13.28016736431168 -0.22907932919500298 13.28016736431168 9.033007827473531" pbc="T T T"
Cr      -0.09214582      -0.01903027      -0.00817407       0.60000000       0.97413153      -0.04424356       0.00075471
Fe      -0.05788278       1.72716444       1.76301496       0.60000000       0.48888860       0.91022580       0.20688139
Ni       1.83771546      -0.01458011       1.83034119       0.60000000      -0.52027874       0.13420214       0.13914104
Ni       1.76544551       1.84186915      -0.04818140       0.60000000      -0.08466603      -0.05567451       0.42597857
Co      -0.05620651      -0.02948435       3.71026759       0.60000000       0.70489102       0.06056381      -0.79541071
Co      -0.05455094       1.73155088       5.48740602       0.60000000       0.64097386       0.01245181      -0.67175364
Co       1.81373761      -0.16055762       5.38048180       0.60000000      -0.39104293       1.24496481       0.27709019
Mn       1.83165411       1.76030831       3.57667068       0.60000000      -1.09089344      -0.24183629       0.75000182
Mn      -0.00254218      -0.13088357       7.29821254       0.60000000      -0.09390070      -0.18400476      -0.21622350
Fe      -0.04414363       1.64045176       9.02669464       0.60000000       0.01890849       0.57983534       0.92409541
Cr       1.85921472      -0.10576063       9.07529560       0.60000000      -0.51015874      -0.20485466       0.34891732
Mn       1.78160222       1.73072264       7.22751614       0.60000000       0.33292516      -0.33744814      -1.27068634
Ni      -0.04752734       3.67513984      -0.12862950       0.60000000      -0.21095244      -0.45532523       0.39517964
Ni       0.00002209       5.33767460       1.71130987       0.60000000      -0.37470182       0.38806801      -0.03403635
Fe       1.80138051       3.68024361       1.72039816       0.60000000      -0.30391606      -0.72132710      -0.40385870
Cr       1.75159744       5.44474493      -0.07087092       0.60000000       0.27836307      -0.15117402       0.06563596
Ni      -0.11069002       3.62822661       3.53535895       0.60000000       0.65577220      -0.95414358      -0.24954648
Mn      -0.03412687       5.30255891       5.35395445       0.60000000       0.24938876       0.05747567      -0.13480260
Ni       1.75361188       3.46231874       5.33938295       0.60000000       0.06639592       0.37167908       0.43029331
Cr       1.81641071       5.35294326       3.52180512       0.60000000      -0.62497907       0.31163143      -0.09731279
Fe      -0.04418632       3.48812816       7.18019804       0.60000000      -0.08543127       0.23927945       0.35431386
Fe      -0.00774650       5.23763679       9.03760207       0.60000000      -0.81606087      -0.05136995      -0.22228028
Mn       1.78403641       3.47554578       9.04073544       0.60000000       0.39422923       0.25024268       0.90877110
Mn       1.81074879       5.35288900       7.16622107       0.60000000      -0.13408494      -1.10534320       0.19180232
Cr       3.54838068      -0.09405347       0.01412095       0.60000000       0.24664065       0.39740330      -0.18326503
Fe       3.60796737       1.78982229       1.80555412       0.60000000       0.00574168       0.03288043      -0.56196963
Cr       5.42794859       0.00276425       1.74879421       0.60000000      -0.35303619      -0.57695666       0.50531084
Cr       5.37231574       1.77563909       0.01307429       0.60000000      -0.15692470       0.60383077      -0.53705155
Co       3.60453535      -0.01132009       3.63940148       0.60000000       0.03862564      -0.06512229      -0.41171958
Co       3.56360334       1.74545678       5.41423505       0.60000000       0.19140069      -0.19520357      -0.02382764
Cr       5.45245424      -0.11497220       5.46472000       0.60000000      -0.47925360      -0.26994571      -0.11288389
Fe       5.38384875       1.68369388       3.71167606       0.60000000      -0.04471781       0.54793201      -0.47560698
Mn       3.57691700      -0.13020767       7.23876832       0.60000000       0.71752364       0.56900901       0.44664017
Fe       3.56768354       1.63114713       9.08712219       0.60000000       0.54132643       0.17384339       0.50565996
Cr       5.44098680      -0.21273985       9.10905777       0.60000000      -0.63553477       0.05016297       0.22967699
Fe       5.40243517       1.60882736       7.21741134       0.60000000      -0.36920042       0.76892378      -0.01470766
Ni       3.54481083       3.58003493      -0.03925047       0.60000000       0.50004113       0.30708221      -0.11308645
Co       3.54429772       5.41679056       1.76392677       0.60000000       0.41516936      -0.49109166      -0.32147531
Co       5.35938995       3.55077550       1.75164595       0.60000000       0.02501271      -0.00199501      -0.40946463
Co       5.32887463       5.39532277      -0.05842047       0.60000000      -0.03760013      -0.94981139      -0.03508053
Ni       3.50728911       3.51120352       3.56366570       0.60000000       0.80322432       0.22260001      -0.07684418
Mn       3.54485668       5.41269761       5.32502518       0.60000000       0.60320069      -1.57885746      -0.22188848
Cr       5.43193166       3.50451586       5.41385302       0.60000000      -0.79812960       0.08013462       0.10234204
Mn       5.38348448       5.31601063       3.45691527       0.60000000      -0.32942998       0.37205227      -0.36294925
Ni       3.65309766       3.40564829       7.24887720       0.60000000      -0.40520623       0.37606875      -0.26589160
Co       3.61232586       5.26719245       8.93196102       0.60000000       0.16597576      -0.39095856       0.52234435
Fe       5.36708226       3.39586712       8.97306039       0.60000000      -0.31919587       0.74630845       0.62755517
Ni       5.35736380       5.34258206       7.21449609       0.60000000       0.11054580      -0.78216470      -0.13476238
32
Lattice="7.135747929883587 0.04693485375320381 -0.054600078997441605 0.04693485375320381 7.0936504914126886 0.02580278561729357 -0.054600078997441605 0.02580278561729357 6.9361522792545465" Properties=species:S:1:pos:R:3:initial_magmoms:R:1:mace_force:R:3 mace_energy=-437.07226075013125 mace_virial="40.076610661321155 -2.3546291011835656 4.978097877926593 -2.3546291011835656 39.615378568052954 -2.0390807172667187 4.978097877926593 -2.0390807172667187 38.633090038667504" pbc="T T T"
Fe      -0.08597613       0.07136079      -0.09768395       0.60000000       0.74075008      -1.53368755       1.58908609
Co       0.05008476       1.79820630       1.74455480       0.60000000       0.11121608      -0.00310402      -0.34466414
Ni       1.71797572       0.05872080       1.85696966       0.60000000       0.06243627      -0.27511797      -1.72757249
Fe       1.80132858       1.70033816      -0.06684136       0.60000000      -0.00415397       0.74217987       0.44253241
Fe      -0.08999526      -0.00023461       3.36202776       0.60000000       1.21022923       0.22540811       1.81940635
Ni      -0.08621776       1.78390138       5.20439726       0.60000000       0.31591060       0.00537056      -0.14743169
Co       1.65812955       0.03234185       5.27019252       0.60000000       0.22233643      -0.75835511      -0.72182829
Mn       1.75957382       1.77566417       3.58776997       0.60000000      -0.98404063       0.34423681      -0.63810354
Cr       0.04580652       3.49205010       0.01003558       0.60000000       0.32172409       0.00206635       0.57341037
Co       0.06066565       5.34647864       1.92520137       0.60000000      -0.13832475      -0.24536175      -1.87770994
Mn       1.78151004       3.61991685       1.66101546       0.60000000      -0.55950183      -0.61208793       0.68623635
Cr       1.85628390       5.20842301      -0.05610228       0.60000000      -0.89033049       1.84668576       0.73475305
Ni       0.01157874       3.52888919       3.56013407       0.60000000       0.14838971      -0.29565406      -1.07616184
Mn       0.00145164       5.22147354       5.16338906       0.60000000       0.55110725       1.20521861       0.94495286
Ni       1.79913891       3.59290745       5.22578019       0.60000000       0.10797252      -0.65412634      -0.40570341
Co       1.76009789       5.31142169       3.43551182       0.60000000       0.72318307       0.34156298       0.85485746
Mn       3.61144386       0.01319410      -0.07536777       0.60000000      -0.12032444      -0.50825751       1.00937724
Co       3.53731123       1.82198542       1.80644427       0.60000000      -0.17975734      -0.05271997      -1.33678542
Fe       5.35890291       0.07465343       1.81649420       0.60000000      -0.44461939      -0.20294964      -1.83389515
Fe       5.42396191       1.78503215      -0.00556858       0.60000000      -0.67330967       0.50835662       0.62290286
Cr       3.44599226       0.08161192       3.42193530       0.60000000       0.76440288      -0.94827664       0.92892171
Fe       3.56720511       1.78609765       5.15252180       0.60000000       0.57922713       0.37321323       0.29915917
Ni       5.33297289       0.10702239       5.19831717       0.60000000      -0.17302559      -0.98379594      -0.84773734
Cr       5.44073942       1.79426680       3.30371805       0.60000000      -0.84883298       0.94354560       1.05163154
Mn       3.65305118       3.69704851      -0.03461538       0.60000000      -1.09146678      -2.19790683       0.02265517
Cr       3.63635928       5.41527318       1.74319170       0.60000000      -0.71347077       0.08541757       0.57730070
Fe       5.34052796       3.62612182       1.65692756       0.60000000       1.11755047      -1.26349725       0.87178231
Co       5.34216229       5.16293876       0.07348545       0.60000000       1.50121908       3.18904335      -0.43020034
Mn       3.54603365       3.54364382       3.41235513       0.60000000       0.51206752       0.74093936       0.94549957
Ni       3.55886206       5.38219862       5.27782044       0.60000000       0.25781250       0.27663783      -1.65252063
Cr       5.40546218       3.65839128       5.31351937       0.60000000      -0.84554362      -0.68250443      -1.67806797
Mn       5.44718340       5.28984021       3.38703788       0.60000000      -1.58083266       0.38752035       0.74391697
48
Lattice="7.004218127583067 0.01182760579282439 0.04665922257247805 0.01182760579282439 7.230949984010772 0.07652558633419568 0.06998883385871707 0.11478837950129352 10.780499920623644" Properties=species:S:1:pos:R:3:initial_magmoms:R:1:mace_force:R:3 mace_energy=-655.6720922826827 mace_virial="33.49040451960434 -2.1783958284082754 -4.62018094962305 -2.1783958284082754 31.555478196668325 -8.595374536589485 -4.62018094962305 -8.595374536589485 34.83681633307987" pbc="T T T"
Co       0.05560695       0.06279494      -0.22655489       0.60000000      -1.27683687      -0.52206697       1.85563409
Cr       0.10299975       1.90055990       1.78834146       0.60000000      -0.98372639      -0.83575951      -0.33852715
Cr       1.68166454       0.03390374       1.82290267       0.60000000       0.07419363      -0.23825838      -0.25069238
Cr       1.74082266       1.87985868      -0.02697500       0.60000000      -0.40346713      -0.65993431       0.93710582
Co      -0.07538600       0.11581664       3.56240865       0.60000000      -0.10104567      -0.20093746       0.99721874
Co       0.08949160       1.79776101       5.46367257       0.60000000      -1.01213128      -0.12922728      -0.41312816
Ni       1.77766398       0.05718359       5.53225839       0.60000000      -0.07293648       0.28680895      -1.29745225
Fe       1.72740785       1.76062706       3.71387244       0.60000000       0.20558366      -0.64817136      -0.19579914
Cr       0.15025452       0.01225743       7.24963436       0.60000000      -0.19500478       1.16268526       0.18469483
Co       0.14614938       1.86720164       9.07539800       0.60000000      -0.78476574       0.33539038      -0.97590059
Co       1.83032204       0.00773297       9.13035815       0.60000000       0.33091497       0.37548810      -1.39225932
Co       1.80015037       1.95791327       7.20465468       0.60000000      -0.17555990      -0.64737196       0.18404282
Mn       0.07934169       3.79205017       0.08053366       0.60000000      -0.85081978      -1.55299530      -0.17007763
Mn      -0.01977995       5.46271688       1.89565273       0.60000000      -0.67727202       1.01701361      -0.95167938
Mn       1.68279352       3.62365770       2.00871145       0.60000000       1.60267616      -0.17044661      -1.54025410
Fe       1.73488677       5.51996437       0.10172548       0.60000000       0.49027352      -0.23458468       0.23057667
Fe       0.14554666       3.60956245       3.57602288       0.60000000      -2.82615263      -0.68591479       1.69683506
Fe       0.04503146       5.56385734       5.48528447       0.60000000       0.17182520      -0.23285542      -0.63718842
Fe       1.79170270       3.55041376       5.28527208       0.60000000       0.49749535       0.98623065       1.42839822
Mn       1.72061438       5.42777662       3.61100457       0.60000000       0.84814066       2.08848633       1.36687177
Mn       0.13538250       3.62668364       7.24889566       0.60000000      -0.71890516      -0.42996123      -0.54620633
Mn       0.02187304       5.43667289       9.01838319       0.60000000       0.66258138       1.05225153      -0.03425732
Mn       1.83562506       3.67405074       9.07594538       0.60000000       0.41179776       1.10005272      -0.40943556
Cr       1.85775991       5.43117705       7.26520680       0.60000000       0.41954199       0.02215628       0.07231807
Cr       3.50658651      -0.06155764       0.10308337       0.60000000       0.58503682       0.14516608      -0.43951351
Mn       3.46628664       1.78171272       1.79872438       0.60000000       0.45083317      -0.34764035       0.42235484
Co       5.32159676       0.04602673       1.85085738       0.60000000      -0.28178081      -0.06315345      -0.38774543
Ni       5.19196460       1.92606921      -0.05482917       0.60000000       1.03307211      -1.29036757       1.03987026
Co       3.46812776       0.16400288       3.60965510       0.60000000       0.25161036      -1.51199674       0.33141709
Fe       3.53011766       1.84787998       5.48300376       0.60000000       0.44036527      -0.09226049      -0.28764634
Co       5.24286227       0.00942706       5.40946824       0.60000000       0.40179878       0.76274903      -0.11496575
Ni       5.08756017       1.76124868       3.61520624       0.60000000       1.71361119       0.85280372       0.38302509
Cr       3.50989982       0.23302094       7.17359476       0.60000000       0.19752159      -1.15895327       1.08313232
Mn       3.47107814       1.85341242       9.10978903       0.60000000       1.55956486      -0.46507331      -1.07922346
Ni       5.39761831       0.05734596       8.94228122       0.60000000      -0.85937241       1.03076861       0.52321374
Ni       5.29250274       1.93814351       7.23747215       0.60000000       0.57564884      -0.88844830       0.35989982
Mn       3.46438181       3.54851628       0.16374423       0.60000000       0.32128349       1.76327907      -1.02915352
Fe       3.54390077       5.35087976       1.88946168       0.60000000       0.72178239       1.03684791       0.18884681
Fe       5.28175348       3.62559025       1.83749471       0.60000000       0.06530031      -0.26756381       0.49943768
Ni       5.33258894       5.51477807      -0.02075698       0.60000000      -0.51288195      -0.37482040       1.31338287
Fe       3.61110665       3.70911930       3.74929075       0.60000000      -0.35205694      -0.64336340      -0.65741886
Co       3.49598445       5.63511891       5.48272504       0.60000000       0.39636955      -1.00991059      -0.34657666
Cr       5.26259957       3.66847714       5.57840338       0.60000000       0.80479766      -0.06625237      -0.87862483
Fe       5.32353984       5.37458616       3.73570389       0.60000000      -0.26287097       1.36495542       0.23304916
Ni       3.58548670       3.61208604       7.25569935       0.60000000      -0.38767162       0.75195526       0.31187259
Ni       3.59094563       5.55864129       9.14818806       0.60000000       0.12724385      -0.62012187      -0.49382044
Ni       5.46133465       3.64346702       9.08696285       0.60000000      -1.07521664       0.53475657      -0.53936466
Cr       5.42118033       5.56061462       7.33760930       0.60000000      -1.55038936      -0.68143432      -0.23628719
48
Lattice="7.230966307474245 0.041317830622075155 -0.010094514956420211 0.041317830622075155 7.366694304490669 0.0974654594412256 -0.015141772434630317 0.1461981891618384 10.983478407485098" Properties=species:S:1:pos:R:3:initial_magmoms:R:1:mace_force:R:3 mace_energy=-658.812020434735 mace_virial="5.56509070389572 -3.6375346973797655 -0.0658010857373854 -3.6375346973797655 1.9833474351963072 -7.833277734602888 -0.0658010857373854 -7.833277734602888 5.855252020756176" pbc="T T T"
Fe       0.06790123       0.01239721      -0.00903524       0.60000000       0.08938847       0.58819243      -0.38808837
Cr       0.07880165       2.09632643       1.82580863       0.60000000      -0.22957495      -1.73945181       0.41760517
Ni       1.71424617       0.01326345       1.94984830       0.60000000       1.31588042       1.00652777      -1.57088726
Co       1.89118218       1.82353242       0.02507878       0.60000000      -0.42240350       0.11721507       0.05970706
Mn       0.10286159       0.03942645       3.61946575       0.60000000      -1.55302170       0.44353511       0.83140387
Co      -0.12425680       1.98783358       5.53469310       0.60000000       0.94041107      -0.08529617       0.02016569
Ni       1.77144920      -0.00363765       5.57771663       0.60000000       0.18905957       1.02475072      -0.97032272
Mn       1.78749835       1.97979800       3.69367573       0.60000000       0.99681692      -0.98719909       0.88769988
Mn       0.04462957       0.15366528       7.38091334       0.60000000      -0.37014110       0.11849049      -1.56987018
Fe       0.07944961       2.02338195       9.16103794       0.60000000       0.46447127      -0.18971113       0.80114090
Fe       1.74564039       0.13391741       9.13049104       0.60000000       1.00108221      -0.08254962       1.03752210
Fe       1.82802301       1.96282333       7.36950260       0.60000000      -0.20131904       0.04504307      -1.05589975
Ni       0.10183473       3.55033999       0.06317042       0.60000000      -0.33169999       1.01802901      -1.09116544
Mn       0.15219339       5.65429265       1.74408706       0.60000000      -1.68557613      -1.99301898       0.32997619
Ni       1.78838049       3.74715701       1.74366549       0.60000000       1.06822048      -0.40324667       0.64752183
Ni       1.78594093       5.39383725       0.03776588       0.60000000       0.88831268       0.84272872      -0.80572632
Fe       0.06122071       3.63360260       3.75811756       0.60000000      -1.43950219       0.71964803      -0.66348337
Cr       0.01731065       5.55179778       5.47916397       0.60000000      -0.08238526       0.09228427       0.86648505
Mn       1.82443007       3.82155683       5.55097258       0.60000000      -0.79201433      -0.79768373       0.26515073
Cr       1.72745083       5.50274176       3.55676061       0.60000000       0.46141861       0.10567770       1.10432931
Fe       0.03565681       3.81838770       7.38549647       0.60000000       0.00577215      -0.54707788      -0.67232151
Cr       0.06194574       5.64158599       9.15806684       0.60000000       0.11814976      -0.21287532       1.14057906
Ni       1.85122385       3.79352543       9.23782528       0.60000000      -0.17765139       0.37588939      -0.32713297
Mn       1.84608175       5.71633351       7.37560088       0.60000000       0.22654685      -1.09459848       0.17368819
Cr       3.68413771      -0.04791320      -0.04805375       0.60000000      -0.85464606      -0.14607985      -0.11567525
Mn       3.67697612       1.85356924       1.86031740       0.60000000      -0.16127302      -0.01071258       0.10861561
Ni       5.44112499       0.07441637       1.80365315       0.60000000       0.20114494      -0.88780921       0.56807730
Cr       5.47938128       1.79766654       0.12793472       0.60000000      -0.08007957       0.45592756      -1.30804925
Ni       3.64109503      -0.09216856       3.68275612       0.60000000      -0.37038673       0.85256813      -0.74917227
Co       3.66628142       1.82658116       5.45954541       0.60000000      -0.49363031       0.62247976      -0.08346085
Cr       5.34599774       0.07027728       5.43050487       0.60000000       0.67586062       0.00431310      -0.22754713
Ni       5.50375573       1.87631815       3.69779066       0.60000000      -0.45673506       0.31082922      -0.33461438
Fe       3.51520504       0.17983560       7.29536856       0.60000000       0.24216619      -0.53485728       0.17591540
Mn       3.59420893       2.08709850       9.15928086       0.60000000      -0.03567484      -0.51554891       0.57843813
Cr       5.45618067       0.08914415       9.05950166       0.60000000      -0.38586073       0.13605311       0.61678772
Cr       5.37145318       1.83165258       7.34276479       0.60000000       0.08118501       1.21430912       0.07500654
Co       3.61946813       3.67276048      -0.00678163       0.60000000       0.09713648       0.83844190       0.19106836
Fe       3.54446555       5.53305726       1.88934653       0.60000000       1.05762361       0.17427846      -0.33251640
Co       5.43937711       3.71113918       1.74295100       0.60000000      -0.20269413       0.98850349       0.42132895
Co       5.46486201       5.58330269       0.00522449       0.60000000      -0.11034085      -0.58088567       0.58036348
Mn       3.67591962       3.86214601       3.86063240       0.60000000       0.29251226      -1.46707134      -1.99438494
Cr       3.61091817       5.54699837       5.41317355       0.60000000       0.07926964       0.93181295       1.37217200
Fe       5.43628900       3.81018003       5.50022909       0.60000000       0.69155846      -0.45326006       0.93771090
Co       5.46030064       5.54600694       3.75674892       0.60000000       0.47184803       0.21529431      -1.28791449
Fe       3.57044226       3.83918240       7.24129718       0.60000000       0.84918948      -0.04394266       0.43545673
Co       3.67792279       5.59366844       9.10046842       0.60000000      -0.25930980      -0.07025976       0.77493101
Mn       5.57465649       3.84794586       9.17799478       0.60000000      -1.05059350       0.45541346       0.48654153
Co       5.50425241       5.77089051       7.36573156       0.60000000      -0.75851099      -0.85510012      -0.35715584
48
Lattice="7.033872409752556 -0.05574062269019341 -0.08132069609802957 -0.05574062269019341 7.247237654090071 -0.10466697271347361 -0.12198104414704436 -0.15700045907021043 10.486237504368672" Properties=species:S:1:pos:R:3:initial_magmoms:R:1:mace_force:R:3 mace_energy=-655.0129668592883 mace_virial="41.646958712768594 6.363576004950998 10.274886076162458 6.363576004950998 31.91362930423988 11.606402982555458 10.274886076162458 11.606402982555458 41.76794590815698" pbc="T T T"
Fe      -0.03503669       0.01172383       0.01192763       0.60000000       0.30557020      -0.24265375       0.63247901
Co      -0.00909265       1.71027996       1.64797562       0.60000000       0.03100917      -0.04474561       0.57138400
Co       1.71056155      -0.06182795       1.76128688       0.60000000      -0.14637122       0.04570863       0.01441662
Co       1.78008340       1.76484289      -0.01088161       0.60000000      -0.74889139      -0.04933868      -0.34982622
Fe      -0.06386865      -0.03155605       3.53914254       0.60000000      -0.20961275      -0.53330319      -1.11544195
Fe      -0.11917281       1.67905422       5.22065373       0.60000000       0.45579565      -0.12986036      -0.01398920
Cr       1.59745664      -0.07146054       5.27689668       0.60000000       1.00820324       0.42401264      -0.24659658
Ni       1.75141330       1.77190720       3.41033927       0.60000000      -0.56834885      -0.34417290       0.44525458
Ni      -0.14308388      -0.13641993       6.99240716       0.60000000       0.53878478       0.71171216       0.53117997
Ni      -0.11173582       1.70303751       8.78099732       0.60000000       0.15737134      -0.15983884      -0.14957397
Fe       1.66593979      -0.18684565       8.78931445       0.60000000      -0.85841511       0.38889047      -1.14642964
Co       1.57063373       1.77711871       6.97157697       0.60000000       0.50120801      -1.12943236       0.18904592
Ni      -0.06182807       3.63008906       0.01020380       0.60000000       0.06956806      -0.11635058      -0.90768934
Ni       0.04179768       5.37130003       1.70651285       0.60000000      -1.10653791       0.63948135      -0.19289374
Mn       1.62141610       3.56569347       1.63238866       0.60000000       0.65542047      -0.29354784       0.14810634
Fe       1.72688662       5.40251413      -0.06107309       0.60000000      -0.76539152       0.25847796      -0.07635728
Mn      -0.05968711       3.56498221       3.46482880       0.60000000      -0.06449178       0.13460079       0.23560919
Co      -0.12179521       5.44119511       5.22108265       0.60000000      -0.54111998      -0.63066396      -0.38832483
Cr       1.62144494       3.53470259       5.23777223       0.60000000       0.47084696      -0.28096539      -0.56187902
Fe       1.64055833       5.36265812       3.43466019       0.60000000       0.55394334       0.52539146       0.20236617
Mn      -0.08188840       3.42115513       6.97192044       0.60000000      -0.27807492       1.43779897       0.21318609
Cr      -0.14264736       5.35513660       8.63171593       0.60000000      -0.05867234      -0.89688157       0.39573840
Fe       1.65745128       3.54098221       8.67765722       0.60000000      -0.63542328      -0.53407873       0.52844221
Ni       1.59245997       5.35509812       6.84336747       0.60000000       0.35851584       0.05288860       0.61936151
Mn       3.51596049      -0.06955425      -0.07864922       0.60000000       0.29357636      -0.19715756       0.59850144
Mn       3.46186416       1.72973411       1.66523482       0.60000000      -0.39187197       0.05215234      -0.11602715
Co       5.21972282      -0.11038196       1.65755766       0.60000000       0.87078228      -0.10503503       0.14001136
Fe       5.29100322       1.77606696      -0.10447468       0.60000000       0.39722864       0.16981806      -0.08484350
Ni       3.53794513      -0.01399847       3.45881375       0.60000000      -0.59675106      -0.70975158       0.13592769
Ni       3.44534157       1.69480427       5.22522247       0.60000000      -0.31675316       0.10428205      -0.22520861
Co       5.22742110      -0.09758457       5.19508775       0.60000000      -0.22200559      -0.19209006       0.01492605
Mn       5.19050477       1.74181766       3.37413142       0.60000000      -0.18079412      -0.19933367       0.53961590
Ni       3.38947979      -0.09473818       6.97058423       0.60000000      -0.06776418      -0.36321622      -0.35452849
Mn       3.35778547       1.60611631       8.65924436       0.60000000      -0.27046651       0.71244748       0.52554387
Cr       5.12435491      -0.17381890       8.70894757       0.60000000       0.37571342       0.38918661      -0.07316208
Mn       5.14798827       1.66139164       6.94756675       0.60000000       0.24859125      -0.64931762      -0.09039414
Cr       3.46396805       3.57125427      -0.11576445       0.60000000       0.22197158       0.23641693       0.03903540
Mn       3.46311271       5.39198640       1.63942930       0.60000000       0.49538085      -0.12615138       0.43461143
Cr       5.22086968       3.48734653       1.63594645       0.60000000       0.10231648       0.84913890      -0.15860776
Co       5.28077222       5.41206480      -0.19695101       0.60000000       0.17208727      -0.36715001       0.90361358
Co       3.39308596       3.57492044       3.39532811       0.60000000       0.09260627      -0.21768373       0.51725127
Cr       3.46123088       5.34972925       5.13834233       0.60000000      -0.17464295       0.03715260      -0.38086182
Fe       5.23923911       3.51419990       5.17705654       0.60000000      -0.65540356       0.41569852      -0.54404905
Ni       5.18085778       5.29977472       3.38619548       0.60000000       0.29825466       0.54645583      -0.08736703
Cr       3.41171088       3.47416753       6.96097623       0.60000000      -0.17305046       0.14200075      -0.58554761
Cr       3.39974164       5.25403172       8.64032952       0.60000000      -0.34024079       0.37430604      -0.30545536
Co       5.11616018       3.48769705       8.66954016       0.60000000       0.49909736      -0.32169089      -0.04925616
Fe       5.12463268       5.31346825       6.87580946       0.60000000       0.19725191       0.18639238      -0.37129749
32
Lattice="7.1078220386754305 0.03727693218650872 -0.029519739614272053 0.03727693218650872 7.066929803116433 -0.10319205453555651 -0.029519739614272053 -0.10319205453555651 7.160121719950344" Properties=species:S:1:pos:R:3:initial_magmoms:R:1:mace_force:R:3 mace_energy=-437.9250610556187 mace_virial="25.80544714116438 -2.273061000779765 3.0881251119859408 -2.273061000779765 29.240129865764565 8.039941044941878 3.0881251119859408 8.039941044941878 26.33665402117927" pbc="T T T"
Cr      -0.01035290       0.06411633       0.05023405       0.60000000       0.52440191      -0.67322290      -1.05306116
Mn       0.00166127       1.75641002       1.65071111       0.60000000       0.27767359      -0.68600226       2.08298298
Mn       1.80555580      -0.04200639       1.70183297       0.60000000      -0.43037943       0.27530073       0.38584742
Ni       1.70426555       1.81367310      -0.04878811       0.60000000       1.43937999      -0.12864641      -0.02624538
Co      -0.00413920      -0.03216839       3.71780967       0.60000000      -0.44618854       0.37638118      -1.12722211
Co      -0.00154547       1.74075466       5.38813853       0.60000000       0.07100006      -0.55420473      -1.05632540
Ni       1.75952710      -0.04618726       5.31383351       0.60000000      -0.07434808       0.26780401       0.97997131
Fe       1.75159183       1.72749772       3.52946708       0.60000000      -0.22881154      -0.09879724       0.63167436
Fe      -0.09786034       3.46428750      -0.05377941       0.60000000       1.37847135       1.93802083      -0.13325145
Ni       0.02855000       5.27227783       1.73753647       0.60000000       0.28993468       0.18431130      -0.40188084
Mn       1.79271920       3.51842416       1.73655239       0.60000000       1.17488292       0.29012241      -0.95746888
Fe       1.88903088       5.29843321      -0.10392889       0.60000000      -0.67220817       0.10806713      -0.55814988
Mn      -0.00001659       3.53176807       3.42603655       0.60000000      -0.66363189      -0.89498542       1.26958909
Cr      -0.00886921       5.28936245       5.31750025       0.60000000      -0.08735361      -0.55456836       0.35988041
Fe       1.74708237       3.44597916       5.37268731       0.60000000       0.45061040      -0.26783571      -0.14914100
Mn       1.79866099       5.27541841       3.52040399       0.60000000       0.54259502       0.39881811      -0.09016661
Ni       3.60754487       0.01820235      -0.02817746       0.60000000      -0.43184231       0.81861568      -0.47971743
Fe       3.56574015       1.67373399       1.81922493       0.60000000       0.13141732       1.13333702      -1.05626340
Cr       5.28455656      -0.05174796       1.72749530       0.60000000       0.76294634       0.70616330       0.99693326
Mn       5.45878590       1.82313250      -0.00505727       0.60000000      -3.04152812      -0.74261187      -1.06008998
Cr       3.52829757       0.04446266       3.59073404       0.60000000       0.21157450      -0.89429493      -0.07188659
Co       3.50769629       1.62721845       5.26162214       0.60000000       0.25902403       0.78173137       0.93323507
Co       5.33443618       0.04121102       5.29503935       0.60000000      -0.11031115       0.03559831       0.13131250
Co       5.30314961       1.74738162       3.45345513       0.60000000       0.55261340       0.16652870       0.51084437
Ni       3.53951543       3.60877773      -0.10880508       0.60000000       0.31089431      -0.94329938       0.31254538
Ni       3.61980344       5.38256154       1.58340867       0.60000000      -0.74584546      -1.05911454       1.25301062
Fe       5.31442462       3.61198476       1.67674313       0.60000000      -0.85536974      -0.37277343       0.45438043
Fe       5.33565338       5.36581059       0.02227499       0.60000000       0.33486570      -0.23389834      -1.45359431
Co       3.60340906       3.51096900       3.56315527       0.60000000      -0.41050588      -0.19986853      -0.60764816
Cr       3.62975692       5.32943060       5.28373702       0.60000000      -0.08692359      -0.31728390       0.01970550
Cr       5.29229441       3.41997693       5.28632920       0.60000000       0.10344821       0.13213635      -0.15812504
Fe       5.37937547       5.24641630       3.44061899       0.60000000      -0.53048619       1.00847151       0.11832494
32
Lattice="6.999645341109474 -0.057864881571657846 -0.03964367792858123 -0.057864881571657846 7.214386715105762 -0.06800930192296162 -0.03964367792858123 -0.06800930192296162 7.122698617811746" Properties=species:S:1:pos:R:3:initial_magmoms:R:1:mace_force:R:3 mace_energy=-438.91423439031445 mace_virial="22.91294794010182 3.6265992006891974 2.933524752262131 3.6265992006891974 20.8559496529347 3.5648344155757936 2.933524752262131 3.5648344155757936 24.12912634898821" pbc="T T T"
Ni      -0.02267590      -0.04821520       0.03985056       0.60000000       0.34147831       0.26503128      -0.43655020
Mn       0.05988976       1.77536237       1.79136307       0.60000000      -1.26276972      -0.08690761      -0.72445008
Cr       1.79457132      -0.06465346       1.80199890       0.60000000      -0.93622523      -0.38880340      -0.41404113
Mn       1.77744364       1.79984505      -0.02828722       0.60000000      -0.17069384      -0.44397606      -0.43522960
Cr      -0.05943608      -0.01309311       3.55269363       0.60000000       0.34808315       0.03048269       0.54198058
Ni      -0.01707235       1.78781175       5.31998403       0.60000000      -0.38586357      -0.70911234       0.49445224
Fe       1.79418816      -0.12434671       5.30528131       0.60000000      -0.63013486       0.11351480       0.62896561
Mn       1.69714880       1.76490326       3.48565911       0.60000000       0.76769449      -0.16647133       1.62608881
Fe       0.01594069       3.61400971      -0.01063619       0.60000000      -0.74469812      -0.01176459      -0.05437482
Co      -0.11299434       5.37524325       1.74492061       0.60000000       0.68772196       0.16091126      -0.67237702
Fe       1.73130319       3.61580460       1.74495387       0.60000000      -0.23494227       0.01410323       0.12512621
Ni       1.69293856       5.22988674      -0.03780648       0.60000000      -0.09969958       1.40881097      -0.41591901
Cr      -0.05041378       3.56436017       3.54602905       0.60000000       0.00569578       0.22060210      -0.10279240
Co      -0.09838208       5.38432967       5.31908088       0.60000000       0.28949245       0.05135750       0.22811097
Cr       1.71061784       3.47178801       5.29597291       0.60000000      -0.09519381       0.77619176      -0.03995864
Fe       1.69555022       5.36266024       3.51535237       0.60000000      -0.74305258       0.11293728       0.35541527
Ni       3.50622082      -0.05839612       0.10842874       0.60000000       0.12855506      -0.07705795      -1.52843340
Mn       3.43699236       1.70821070       1.78217058       0.60000000       0.65951181       0.21484999       0.57387267
Co       5.28589724      -0.00230976       1.79641806       0.60000000      -0.37329741      -0.30356251      -0.46772055
Fe       5.15359063       1.70915401       0.03001022       0.60000000       0.78394512      -0.36692053      -0.96537258
Co       3.53084291      -0.08100205       3.56330638       0.60000000       0.11919035       0.14881471       0.24779524
Co       3.41458907       1.69485180       5.31455890       0.60000000       0.63620093      -0.46881591      -0.29184121
Ni       5.26310298      -0.03260262       5.20749322       0.60000000      -0.34488367      -0.23079902       1.09433738
Co       5.25431939       1.77499050       3.51924843       0.60000000      -0.55626942      -0.59785098       0.18797341
Ni       3.52040511       3.60412651      -0.03312283       0.60000000      -0.32324203      -0.31505258      -0.14757540
Mn       3.35791808       5.40613244       1.66851358       0.60000000       1.23857654       0.07333378       0.19016089
Cr       5.14369155       3.50793290       1.74783186       0.60000000       0.57821173       0.09010312      -0.19823487
Fe       5.22159258       5.37376169      -0.07296208       0.60000000       0.33582633       0.73395853       0.06642854
Cr       3.50332647       3.66755286       3.54563763       0.60000000      -0.13470838      -0.91107817      -0.43404740
Fe       3.40634319       5.33140541       5.31088084       0.60000000       0.35343998       0.68427272       0.34139480
Mn       5.15392230       3.49656528       5.28410791       0.60000000       0.43987457      -0.26777610      -0.16103027
Cr       5.28203642       5.35882769       3.41091163       0.60000000      -0.67782406       0.24667336       0.78784598
32
Lattice="7.201833448368575 0.036732188399031876 -0.00695229380813577 0.036732188399031876 7.2746997997392775 -0.11728120187084674 -0.00695229380813577 -0.11728120187084674 7.377001851012848" Properties=species:S:1:pos:R:3:initial_magmoms:R:1:mace_force:R:3 mace_energy=-438.1250834347974 mace_virial="2.7155798057381983 -3.179370411636705 2.549692499761374 -3.179370411636705 1.4425507066046483 7.41059381194983 2.549692499761374 7.41059381194983 -4.9599143954958365" pbc="T T T"
Co      -0.00568519       0.04788808       0.00409942       0.60000000      -0.31889472      -0.19737719       0.65512337
Ni       0.02671356       1.80334271       1.80205447       0.60000000       0.08689817      -0.03466653      -0.03548688
Ni       1.79416101       0.03504529       1.85272754       0.60000000      -0.01191040      -0.29305776       0.29617273
Cr       1.82584197       1.82005248      -0.00785547       0.60000000      -0.10460320      -0.07515470       0.40954856
Co      -0.02861957      -0.09825537       3.64947094       0.60000000       0.79923449       0.15183530      -0.27699651
Cr       0.00103675       1.72664420       5.48258147       0.60000000      -0.35789758       0.20306013       0.30484603
Mn       1.83180817      -0.01087120       5.58069354       0.60000000      -0.34519825       0.10634682      -0.31769449
Co       1.82868088       1.74269955       3.67253313       0.60000000      -0.06135283      -0.26657768      -0.80052631
Ni       0.06217905       3.64935652      -0.03242500       0.60000000      -0.69357386      -0.06740607       0.12946374
Ni       0.00773719       5.45228532       1.78797576       0.60000000       0.15890531      -0.15507811      -0.26625028
Ni       1.83357450       3.62775063       1.73764049       0.60000000      -0.30319654       0.01701387       0.62611240
Cr       1.83699591       5.47402593      -0.06518613       0.60000000      -0.31462211       0.28406912       0.05196834
Cr      -0.00050958       3.58507863       3.64016345       0.60000000       0.19000706      -0.00205535      -0.46305043
Mn       0.03783110       5.38779494       5.41294068       0.60000000      -0.29400678      -0.17103216       0.41533799
Mn       1.81925580       3.53996972       5.48043279       0.60000000      -0.44211857      -0.60415286       0.12703135
Fe       1.83058421       5.33282876       3.60947711       0.60000000      -0.29247872       1.08003769      -1.50656719
Ni       3.61499356       0.05781389       0.02053512       0.60000000       0.24087292      -0.14430544       0.04063089
Fe       3.62535480       1.81347582       1.86153173       0.60000000      -0.72492939      -0.44384330      -0.20263923
Cr       5.39869417       0.02029165       1.87403117       0.60000000       0.61759925      -0.33017202      -0.58000331
Co       5.38921650       1.86144725      -0.01145075       0.60000000       0.35332274       0.00552928       0.15212469
Co       3.61444216      -0.07002120       3.64389990       0.60000000      -0.64066629       0.16580899       0.04616067
Fe       3.62056745       1.75566556       5.49196749       0.60000000       0.43901407      -0.13492386      -0.18394268
Mn       5.43042544      -0.05164070       5.51953099       0.60000000      -0.32104153       0.34991400       0.21122192
Cr       5.41825671       1.79293542       3.59537934       0.60000000       0.23924621      -0.18581104       0.57346211
Mn       3.62124083       3.66528450      -0.01386188       0.60000000       0.16783632      -0.07709762       0.12483716
Fe       3.65458506       5.47470022       1.73949488       0.60000000      -0.07332852       0.43249035       0.39883482
Fe       5.40706884       3.63243270       1.80654167       0.60000000       0.86005587       0.34994457      -0.62994287
Co       5.46171362       5.47284730      -0.11252726       0.60000000       0.16532285       0.05203909       0.42002580
Cr       3.59060942       3.62269996       3.61507111       0.60000000      -0.12323865      -0.03676248      -0.23936961
Mn       3.62466634       5.41418223       5.39003569       0.60000000       0.50093644       0.21767497       0.52644879
Fe       5.36882212       3.60662967       5.47802940       0.60000000       0.46790458      -0.31685047       0.37278765
Ni       5.41404410       5.40975614       3.61192083       0.60000000       0.13590166       0.12056046      -0.37966921
32
Lattice="7.0914198585140165 -0.028665184069060903 0.024160666070772205 -0.028665184069060903 7.089501781485254 -0.007942904316520462 0.024160666070772205 -0.007942904316520462 6.981311054809517" Properties=species:S:1:pos:R:3:initial_magmoms:R:1:mace_force:R:3 mace_energy=-436.9196287476552 mace_virial="33.37178938190912 2.1050582814030374 -2.67717346499867 2.1050582814030374 36.4578201964232 1.1986228599224447 -2.67717346499867 1.1986228599224447 34.885961817458096" pbc="T T T"
Cr       0.09241116      -0.07995431       0.04842629       0.60000000      -1.02960373       0.46940491       0.33575059
Ni       0.04708565       1.86341447       1.65204222       0.60000000      -0.62021161      -1.37052623       0.58753667
Co       1.89053068      -0.03151559       1.74629598       0.60000000      -1.14882089      -0.00579276       0.11966652
Mn       1.81255966       1.69471465      -0.00741020       0.60000000      -0.79665164       0.80665332       0.27297083
Mn       0.04398562      -0.13294272       3.45119974       0.60000000      -0.28786830       1.87877126      -0.47734118
Cr       0.05248306       1.72806370       5.20598278       0.60000000      -0.07995202       0.46127716      -0.29660576
Co       1.75351814       0.07385510       5.24874398       0.60000000       0.54753674      -1.10375846      -0.21325045
Ni       1.83267671       1.73136304       3.42013572       0.60000000      -0.98704983       0.44202719       0.37038512
Co      -0.18618718       3.52217448      -0.00379771       0.60000000       1.48334226       0.81887499      -0.50457732
Co      -0.03825527       5.24637376       1.78739075       0.60000000      -0.07827968       0.22707552      -0.68468677
Mn       1.70024056       3.52691622       1.78726236       0.60000000       0.09204936       0.00484958      -0.86136563
Ni       1.69065075       5.33465234       0.05001569       0.60000000       0.50338211      -0.67689241      -0.66514192
Ni      -0.03861159       3.48601988       3.36399038       0.60000000      -0.13506909       0.29700293       1.19730538
Cr       0.01309502       5.33040232       5.21706738       0.60000000      -0.06394300      -0.65129909       0.40967525
Fe       1.82328335       3.47212723       5.29346245       0.60000000      -0.82974615       0.42552208      -0.56585063
Fe       1.72021208       5.31928774       3.56626616       0.60000000       0.19636094      -0.58008743      -0.69304092
Fe       3.49882655       0.02304003       0.04248344       0.60000000       0.74849273      -0.45065008      -0.94909478
Ni       3.55436960       1.80036832       1.67052523       0.60000000       0.22895059      -0.42980669       0.61413537
Ni       5.33644996      -0.07459772       1.75573673       0.60000000      -0.06649291       0.62168151      -0.50412020
Fe       5.33958885       1.79147193      -0.00868208       0.60000000       0.11549897      -1.18974261       0.38994986
Mn       3.47420333       0.08260380       3.47305994       0.60000000       0.93491684      -0.37042781       0.15996037
Cr       3.61248673       1.78637288       5.20692208       0.60000000      -0.58958952      -0.10937418       0.37700351
Co       5.37203558       0.05803185       5.26657181       0.60000000      -0.54550428      -0.87999176       0.35988103
Cr       5.28900164       1.67277904       3.46225029       0.60000000       0.61975158       0.91848003      -0.70582095
Mn       3.57216648       3.54155919       0.07643665       0.60000000      -0.75048197       0.04379836      -1.39536321
Mn       3.52572218       5.30322287       1.66637449       0.60000000      -0.12522774       0.22089857       1.49271744
Co       5.27119376       3.53451639       1.62318826       0.60000000       0.46365175      -0.09841327       1.75840827
Fe       5.23556906       5.31274600       0.00451986       0.60000000       0.91486956       0.36777937      -0.82611028
Co       3.41113582       3.54416149       3.43685076       0.60000000       0.99055700      -0.06301278       0.18191802
Fe       3.46215281       5.32100537       5.12034965       0.60000000       0.27162488       0.04751435       1.38716643
Fe       5.31893890       3.46498049       5.20508399       0.60000000       0.05663256       0.56301214      -0.40577208
Cr       5.24139415       5.31802324       3.53615750       0.60000000      -0.03312550      -0.63484771      -0.26628855
32
Lattice="7.08892727708934 -0.06762511415345053 0.013784691479383767 -0.06762511415345053 6.97633510626124 -0.006741813118562232 0.013784691479383767 -0.006741813118562232 6.902390912623093" Properties=species:S:1:pos:R:3:initial_magmoms:R:1:mace_force:R:3 mace_energy=-432.2604825716519 mace_virial="48.94943825250996 5.682894968756665 0.28084875144862687 5.682894968756665 47.91080194444961 2.355207332099782 0.28084875144862687 2.355207332099782 51.14227992117512" pbc="T T T"
Ni      -0.04707403       0.03954728       0.12262114       0.60000000       0.12102482      -0.84160871      -1.56131748
Ni       0.09379596       1.66219800       1.71459998       0.60000000      -0.80068240       0.66442701       1.23393580
Fe       1.56949050      -0.21794745       1.90098545       0.60000000       1.85730956       1.71164672      -1.47261196
Co       1.76103133       1.61529615       0.09968471       0.60000000       0.31342554       0.29922707      -0.53945966
Mn      -0.12367712      -0.04294443       3.52433053       0.60000000       0.70801520      -1.07337364      -0.98267537
Mn      -0.04227510       1.67933517       5.07026838       0.60000000       0.96639407       1.80649071       1.29969277
Co       1.73306343      -0.09907671       5.27944048       0.60000000      -0.22198726       0.57561906      -0.54954734
Mn       1.91164477       1.72444959       3.68060286       0.60000000      -2.06003982       0.38957769      -3.58654449
Mn       0.13524376       3.49037790       0.06557031       0.60000000      -1.36355004      -1.35652296      -1.32054658
Ni      -0.14697393       5.11085434       1.61703203       0.60000000       0.66866440       2.59324043       0.38350804
Co       1.58247286       3.53859226       1.74925189       0.60000000       2.39102235      -1.04026882       0.28497632
Ni       1.65478383       5.28754623      -0.00586264       0.60000000       0.42801679       0.20221240       0.46975271
Fe      -0.04917856       3.61953061       3.36714501       0.60000000       0.52436117      -1.68444647       0.24223764
Co      -0.08351580       5.03859434       5.13694485       0.60000000       0.39530884       2.18271800       0.86523181
Cr       1.76625751       3.60008014       5.24439534       0.60000000       0.02270878      -1.49943549      -0.18263559
Fe       1.75983017       5.16219187       3.46474516       0.60000000      -0.89078067       0.57262857      -0.15863591
Co       3.59505152       0.03221137       0.03073558       0.60000000      -1.19201583      -0.64290703      -1.20093978
Ni       3.62967890       1.67006848       1.58782613       0.60000000      -1.48487764       1.22130953       0.74572158
Fe       5.20588550      -0.08598140       1.55624163       0.60000000       1.12448587       0.15945205       0.64166495
Ni       5.32969706       1.81474210      -0.08260329       0.60000000       0.08731663       0.31135086       0.56525865
Cr       3.59431661       0.07998026       3.42824663       0.60000000      -0.11922778      -1.16398511      -0.07200973
Ni       3.40683888       1.76029283       5.16213069       0.60000000       2.52255111      -0.35036151       2.38936505
Fe       5.41402623       0.09022051       5.27752467       0.60000000      -2.07499383      -1.68252740       0.23300464
Mn       5.25976002       1.72506820       3.29683126       0.60000000       0.10355380      -0.06169084       0.98868389
Co       3.46803980       3.47623568       0.00715470       0.60000000      -0.70033871      -0.74730884      -0.13149670
Cr       3.42318074       5.12318409       1.62581009       0.60000000      -0.30003318       0.61908176       0.37610199
Cr       5.31580957       3.51920207       1.79528582       0.60000000      -1.47822197      -1.72797573      -0.97901340
Mn       5.15720176       5.02475126      -0.08064730       0.60000000       0.90192196       1.24803297       0.01980291
Cr       3.55168881       3.50537117       3.49471799       0.60000000      -0.43835197      -0.62889008      -1.07043899
Cr       3.40327230       5.25847986       5.01365651       0.60000000       1.14073096       0.61585240       1.80406593
Fe       5.33636531       3.49805587       5.06881901       0.60000000      -1.05770489      -1.55775367       0.62075651
Cr       5.22216027       5.20007265       3.36572416       0.60000000      -0.09400585       0.88618904       0.64411177
