47
Lattice="7.413374486495013 -0.010343567631609993 0.014108801911410597 -0.010343567631609993 7.283783374627388 0.04448132828959528 0.021163202867115895 0.06672199243439292 11.076289047182586" Properties=species:S:1:pos:R:3:mace_force:R:3 mace_energy=-640.9586297077606 mace_virial="-8.524984107428043 0.7039090912430375 -1.7983847419684311 0.7039090912430375 -9.57853118932433 -4.510942004811591 -1.7983847419684311 -4.510942004811591 -9.482865972906016" ood_type=vacancy parent=972 vac_site=21 vac_Z=28 pbc="T T T"
Co       0.13562633      -0.03439766      -0.00909083      -1.24628366       0.51825947      -0.24556618
Mn       0.07105561       1.83720726       1.89430048      -0.25586314      -0.60235418      -0.23477186
Ni       1.82460669       0.06388353       1.84669819       0.49375416      -0.34636555       0.38294418
Cr       1.88609102       1.76966555      -0.04299484      -0.29662347       0.54999218      -0.03247239
Co      -0.06643122       0.03492483       3.69967498       0.63623658      -0.09860384       0.07038510
Mn       0.06710056       1.86792894       5.52175425      -0.27553417      -0.07532393       0.34856712
Fe       1.95149622       0.01475312       5.60843136      -0.49753109      -0.05514039      -0.16536377
Co       1.83752207       1.74023612       3.74767845       0.80886815       0.11325234      -0.12313471
Ni       0.13372583       0.13078508       7.44976440      -0.48368000      -0.38418117      -0.32538876
Ni       0.01558618       1.82743978       9.25154072      -0.38515308       0.17808961      -0.05652052
Mn       1.94449599      -0.04018926       9.21543997      -1.91979953       0.27965934      -0.27844011
Cr       1.86430981       1.92495949       7.41196067      -0.14368257      -0.22749897       0.26403004
Cr      -0.08624282       3.64049946      -0.02909496       0.47902202      -0.11840287      -0.44494929
Cr      -0.07482066       5.46275744       1.89885603       0.82670404       0.29760945       0.39571740
Fe       1.87830761       3.57200758       1.83083759       0.87724824       0.45298500       0.60636812
Cr       1.77908164       5.49300023       0.05207299       0.48395978      -0.87462941       0.27868458
Ni       0.03734777       3.59654916       3.69901213       0.08599754       0.42979123       0.07599187
Cr      -0.04800605       5.47414911       5.65034697       0.38580733       0.06163353      -0.51809998
Mn       1.87305509       3.68983334       5.63562793       0.23636193       0.29233043      -0.86646265
Cr       1.90425507       5.48327286       3.78678907       0.01894833       0.13762171      -0.77290706
Co       0.04005846       3.69936301       7.33689733      -0.43048853      -0.39001805       1.11419199
Co       1.79297002       3.75896658       9.17861427       0.29048063       0.16749534      -0.01170225
Ni       1.92796149       5.50773293       7.42915862      -0.19225179      -0.17695463      -0.01781344
Mn       3.69665100       0.01848073      -0.02023045       0.20392437      -0.21669010       0.76845882
Ni       3.70378143       1.83796956       1.88001900      -0.02177026      -0.00184777       0.25625576
Fe       5.47858323      -0.07639850       1.97135002       0.50192026       0.77243175      -0.84682401
Fe       5.49043901       1.77226499       0.18287576       0.79132275       0.13898024      -0.42236246
Fe       3.73531303      -0.00694815       3.73325702      -0.84322535       0.74477551      -0.31100167
Ni       3.72242804       1.87232747       5.54807948       0.13555197      -0.44253531      -0.00332025
Mn       5.65813399       0.01896560       5.59767233      -0.70529985       0.13546235      -0.10235038
Mn       5.62826745       1.88730273       3.67494385      -1.13230046       0.03678513       0.29260808
Mn       3.73687405       0.03464403       7.41900135       0.54437096       0.47158572      -0.27318412
Cr       3.79889173       1.92219449       9.28890014       0.16204647       0.09539694      -0.50825652
Ni       5.55686055       0.05578439       9.26261168       0.52513641       0.33027478       0.13411919
Co       5.64887848       1.81459822       7.37887666       0.21400440       0.64643077       0.34383594
Ni       3.77409623       3.59262556      -0.01467438      -0.50684262       0.39568495       0.39677457
Fe       3.76313859       5.41219608       1.87776417      -1.14180529      -0.14890394      -0.33619389
Fe       5.53644965       3.71360339       1.91821170      -0.48768629      -0.76639822      -0.47570230
Cr       5.50311676       5.41156592       0.08770363       0.24902535       0.54025533      -0.87972234
Co       3.72675479       3.59785367       3.79592276      -0.39687413      -0.10351647      -0.31963338
Ni       3.70612747       5.46729856       5.63355818       0.28691159       0.22097656      -0.22225121
Co       5.49980763       3.61738918       5.58132977       0.08847439      -0.05588573       0.19395048
Mn       5.45603506       5.46915817       3.70205363       0.68347120      -0.87602859       1.64909699
Fe       3.73491484       3.64590873       7.28902953       0.66022402       0.14319013       1.05375430
Fe       3.68709871       5.53304402       9.29265036       0.48617454      -1.63227207      -0.01353341
Co       5.60787387       3.61877844       9.31898325      -0.02182906      -0.02178591      -0.63620386
Cr       5.57969435       5.52214964       7.45216188       0.22857693      -0.53561270       0.81839822
31
Lattice="7.408825568554376 0.09654691353013098 0.09481593493630447 0.09654691353013098 7.433254702993146 -0.0845832938206143 0.09481593493630447 -0.0845832938206143 7.238760129975782" Properties=species:S:1:pos:R:3:mace_force:R:3 mace_energy=-420.36796046655815 mace_virial="-6.148538625664101 -4.245277898403075 -4.993568217035862 -4.245277898403075 -8.938733051170033 3.9924354702120413 -4.993568217035862 3.9924354702120413 -5.4506212946102455" ood_type=vacancy parent=295 vac_site=27 vac_Z=26 pbc="T T T"
Fe       0.11548201      -0.03057038       0.06083518      -0.09550726       0.27198174      -0.06350098
Cr      -0.01743638       1.80700517       1.73270636       0.69359222       0.22398630       0.30260947
Ni       1.94431969      -0.13406423       1.80799783      -0.44377063       0.88695639      -0.09351468
Cr       1.85385622       1.90683488      -0.11264941      -0.80146436      -0.74399088       0.21242392
Ni       0.13500978       0.00251284       3.62272639       0.00634873      -0.49843210      -0.03636832
Ni       0.02567314       1.79657106       5.30853395       0.54944384      -0.35219269       1.02719170
Ni       2.01536458      -0.09414877       5.45348266      -0.80082798       0.03841094      -0.19915820
Ni       1.82953487       1.87734159       3.58473933       0.73420977      -0.77740019       0.53599291
Ni      -0.02853359       3.73875362      -0.09924837       0.34952826       0.05068522       0.80880780
Fe       0.08364993       5.51255917       1.79444850       0.12199438      -0.09151632      -0.86937026
Co       1.98242454       3.54500580       1.84136176      -0.98292781       1.49224863       0.08979192
Co       1.97503902       5.62010975      -0.00857213      -0.03877617       0.04893955       0.43488814
Cr       0.17732212       3.65253092       3.60871572      -0.10364409      -0.03979663      -0.29924041
Mn       0.15106644       5.54501675       5.43633528       0.68506957       0.29810251       0.26821889
Mn       1.95728824       3.72576573       5.55214027       0.10173516      -0.62665631      -1.20666982
Fe       1.97835612       5.58125297       3.46086841       0.21028103      -0.13044572       0.18570409
Mn       3.70843376       0.16033537      -0.08303905      -0.86508481      -0.99867983       1.37092981
Mn       3.75270027       1.96822621       1.77523706       0.11782853      -1.54305407       1.10844070
Fe       5.58148891       0.09056429       1.88436448       0.25772771      -0.68450969      -0.47337727
Co       5.66530262       2.05091962       0.12471806       0.12754872      -1.15375246      -0.60681840
Cr       3.76855176      -0.09099959       3.63268898      -0.40343212       0.70066360       0.27507673
Co       3.76052966       1.79578635       5.43183658       0.28599762       0.40804583      -0.81280344
Mn       5.57934319      -0.08831087       5.56416787       1.07807741       1.25062566      -0.47419381
Cr       5.69844355       1.82968736       3.74473414      -0.53105910       0.20535597       0.00574895
Cr       3.65028323       3.59586341       0.09964406       1.04539466       1.46582199      -0.49893778
Co       3.75793926       5.56928940       1.80256622       0.30366984      -0.43895308      -0.15988324
Ni       5.60015334       3.68347130       1.91158144       0.19951429       0.66812922       0.01015404
Fe       3.82816660       3.63939075       3.63939325      -0.36778070       0.73495957       0.17701339
Co       3.88432983       5.48703043       5.37841973      -1.07127015       0.02854656       0.27224841
Mn       5.64816978       3.74806775       5.58278587      -0.04971355      -0.39378550       0.18167494
Cr       5.78261230       5.59219931       3.80911795      -0.31270302      -0.30029420      -1.47307920
47
Lattice="7.109643270593515 0.05271170302596864 -0.005481465716475871 0.05271170302596864 6.9586910262396175 -0.05857811351839845 -0.008222198574713808 -0.08786717027759768 10.648110786779434" Properties=species:S:1:pos:R:3:mace_force:R:3 mace_energy=-641.9197777620927 mace_virial="39.785581105110474 -4.849124923045011 -1.6030651162619562 -4.849124923045011 43.0739850024427 8.96835182754009 -1.6030651162619562 8.96835182754009 38.85927038737315" ood_type=vacancy parent=1112 vac_site=32 vac_Z=27 pbc="T T T"
Mn      -0.04371913       0.00457685       0.03833841       0.98997395       0.06590956      -0.70633040
Mn       0.01472979       1.73936014       1.78933028      -0.10062089      -0.27636087       0.02689333
Co       1.77155353       0.02588871       1.78592384       0.31340883      -0.29886047      -0.12413731
Cr       1.75667139       1.76908468      -0.07985228       0.43253789      -0.30350435       0.80730753
Ni      -0.00695021       0.00564120       3.55073608      -0.20654711      -0.26552901      -0.09495159
Fe       0.02011165       1.72927706       5.24442599      -0.39952130      -0.10262087       0.24385254
Cr       1.75332887      -0.04446445       5.28152353       0.39479933       0.06753928       0.67270056
Co       1.78089975       1.73662504       3.57755075       0.34440909       0.22421698      -0.23197473
Fe      -0.01731749      -0.04848815       7.09586587       0.20256036      -0.02155862       0.26302648
Cr       0.03935248       1.67682677       8.87713700      -0.22289359      -0.21502504      -0.25967938
Ni       1.76682355      -0.05262253       8.87677350       0.07249739      -0.23747991      -0.26880045
Cr       1.78096711       1.71651152       7.02311748       0.55743406      -0.06080629       0.46130062
Cr       0.01352734       3.50503666      -0.06135108       0.02751379       0.14105256       0.24873998
Fe       0.05996923       5.18610252       1.73350651      -0.16727605       0.75176355       0.06940522
Mn       1.79438070       3.52066595       1.72415789       0.93417032      -1.08076450      -0.18336447
Fe       1.82617874       5.22656961      -0.07002348       0.36295077       0.70046556       0.00769478
Mn       0.00279744       3.46066472       3.50015800       0.37977758      -0.54947177       0.39473024
Mn       0.04736845       5.16055158       5.27413122      -0.04461201       0.12389794       0.80781028
Ni       1.81604757       3.45865494       5.28946716       0.04364640       0.11614478       0.14907029
Mn       1.78342779       5.20233010       3.51772956       0.44122193      -0.06950587       0.05127973
Co       0.01468940       3.44275307       7.09462895       0.25779594      -0.03356353      -0.34011571
Co       0.05253749       5.15804623       8.81819644       0.07046076       0.29528645      -0.31770462
Fe       1.78591669       3.42242202       8.85277169       0.34560263       0.35508148      -0.53221665
Ni       1.79664920       5.17402550       7.10713119       0.16458997       0.14053467      -0.45043428
Co       3.55187683       0.06789763       0.01198589      -0.18687327      -0.42967628       0.24023724
Ni       3.57066837       1.70713593       1.76968035      -0.25761425       0.48522671       0.06790738
Co       5.30697738       0.03759401       1.78006662      -0.01405412      -0.08559301      -0.13427766
Fe       5.31159063       1.75113739      -0.01886602      -0.49652703       0.36810606       0.31456731
Mn       3.54139348      -0.01776522       3.57620058       0.00927685       1.10361441       0.00187980
Co       3.56459412       1.74485357       5.32978312       0.21890380      -0.20600008      -0.23901632
Co       5.31628043      -0.01949938       5.28388086      -0.04286838       0.59202013       0.75818271
Co       5.32305466       1.75251182       3.48624363      -0.14720708      -0.31939974       0.71607113
Fe       3.57577311       1.67687393       8.86817828      -0.57649544       0.27295782      -0.47451570
Mn       5.28224231      -0.00868081       8.84903679       0.04412896      -0.17971627      -0.48145705
Cr       5.32918812       1.77870833       7.08289507      -0.19689351      -0.73204519      -0.20338530
Ni       3.58674975       3.50292821      -0.02949528       0.09204395       0.22416396      -0.04148481
Fe       3.58996522       5.22025159       1.76166765      -0.11109446       0.25632000      -0.85372451
Cr       5.37751844       3.51914488       1.76082484      -0.55641545      -0.36182896      -0.16270731
Fe       5.40072568       5.29695338      -0.01903770      -0.92157554      -0.23299024       0.21561986
Ni       3.61280093       3.46305876       3.55129056      -0.53038711      -0.15625603      -0.23560245
Ni       3.58529243       5.20071766       5.28949024      -0.07513408       0.14987415       0.37693785
Cr       5.32087387       3.48779030       5.29837372       0.03886061      -0.13190081       0.01726174
Mn       5.38799007       5.24157123       3.49722622      -0.37709952       0.09150337       0.13339529
Ni       3.57017842       3.48055482       7.06097407      -0.38820550      -0.13002950      -0.00688313
Cr       3.61817802       5.19955479       8.80069528      -0.50555840       0.11432892       0.05968551
Cr       5.35704252       3.50411600       8.82745552      -0.15219986      -0.46821747       0.00575661
Fe       5.34010292       5.20055364       7.07179377      -0.06089119       0.30869635      -0.76855016
47
Lattice="7.080891371680578 0.07669544086044167 -0.07385637344389147 0.07669544086044167 7.1149500519721185 6.729767673279569e-05 -0.11078456016583721 0.00010094651509919353 10.724220916771523" Properties=species:S:1:pos:R:3:mace_force:R:3 mace_energy=-643.3433618803106 mace_virial="27.890125533925648 -9.507093351337495 7.552778629106904 -9.507093351337495 27.14280068848134 -0.26358644312566837 7.552778629106904 -0.26358644312566837 27.510376354920485" ood_type=vacancy parent=1156 vac_site=16 vac_Z=28 pbc="T T T"
Ni       0.04099842       0.00460415       0.00498166      -0.22572362       0.30425600      -0.19406275
Ni      -0.05144754       1.78331587       1.78105113       0.56694000      -0.18963113      -0.15279802
Ni       1.72697013       0.01189009       1.79024951      -0.08918730       0.12044659      -0.27859212
Co       1.80674091       1.80351277      -0.03661796      -0.60189944      -0.55174804      -0.06283386
Co      -0.03137461      -0.01537258       3.61381561       0.18043233       0.38540675      -0.29947641
Ni      -0.08104470       1.80059511       5.32761019       0.76191994      -0.16647742       0.30487528
Ni       1.68038235       0.01733403       5.32242028      -0.06695724       0.10520835       0.43567982
Co       1.73572316       1.75637363       3.53901163      -0.65303011       0.22955215       0.22562609
Co      -0.08564716       0.00880975       7.14887645       0.56574103      -0.17165785       0.00757329
Fe      -0.10732070       1.80094749       8.90688627       0.77959102      -0.48302580       1.12190362
Co       1.69725593      -0.01634506       8.91838520      -0.24160007       0.14389235      -0.14513675
Fe       1.68776686       1.82589997       7.11985347      -0.55655449      -1.08667852      -0.25385555
Ni      -0.00010546       3.52884049      -0.02453292       0.30203422      -0.00002392       0.07879253
Fe       0.06011387       5.39570042       1.77057331      -0.20184109      -0.19362585      -0.48636670
Cr       1.76775908       3.55986794       1.71602091      -0.49762375      -0.26823380       0.87654985
Cr       1.81221222       5.34489149      -0.01117132       0.15570520       0.20181827      -0.02205811
Ni       0.00228422       5.32981718       5.40592236       0.17087254       0.02491218       0.12352037
Fe       1.72881787       3.53542068       5.36611525      -1.03680828       0.17179556      -0.43618646
Mn       1.79373079       5.34061148       3.59144899      -0.57711137       0.14615785      -0.05889551
Fe       0.01357135       3.58494804       7.20020364       0.09973912       0.29504485      -0.60557556
Fe      -0.06048980       5.36916325       8.93480970       0.70297599       0.02153938       0.30633533
Ni       1.73956728       3.53891117       8.92174655      -0.44047954       0.43164350      -0.03645257
Co       1.77204058       5.39902408       7.09978051      -0.20211818       0.06711266       0.39903213
Co       3.54797029       0.03337411      -0.02112017      -0.37536677       0.11682939      -0.14089652
Mn       3.52101760       1.77048389       1.75507320      -0.43820013       0.02780287      -0.68884000
Fe       5.32943383       0.09165507       1.75505266       0.36829212      -0.23531472      -0.77454554
Co       5.33488229       1.82837402      -0.06463103       0.42242472      -0.35577434       0.01065407
Fe       3.47018991       0.05450438       3.53126843      -0.34992676      -0.09343652      -0.00506849
Mn       3.47493561       1.83609498       5.31088082      -0.18956545      -0.68742655       0.12588380
Cr       5.23343324       0.09299461       5.31393618       0.41594644      -0.05754919       0.05361373
Mn       5.31805542       1.85933745       3.51302480       1.06389258      -0.07178211      -0.09612361
Co       3.46191809       0.06568630       7.11274433      -0.48562517      -0.28653821       0.28580274
Mn       3.44503618       1.81474518       8.87950145      -0.17803859      -0.70756575       0.93721333
Fe       5.17785951       0.01692413       8.91884794       0.16958264       0.09829200       0.07371412
Mn       5.27993494       1.84067044       7.10869530       0.32142429      -0.60934517      -0.53339760
Mn       3.60221345       3.60237858      -0.01432715      -0.33362751      -0.24722003      -0.31097438
Cr       3.59346463       5.35952463       1.70831633      -0.35317549       0.87653632       0.55719092
Cr       5.34508914       3.65421426       1.72991473       0.72602242      -0.32087133      -0.08919782
Cr       5.34418651       5.38118433      -0.06375373       0.61024040       0.45605687       0.15770990
Mn       3.56286386       3.56085348       3.54075134      -0.55149430       0.12020935      -0.08811935
Cr       3.56366325       5.35576198       5.35821662      -0.38572430       0.10490745      -0.09102064
Fe       5.30337999       3.56903269       5.32228464       0.82391320       0.56005599       0.06572390
Mn       5.34190765       5.40421154       3.54357756       0.73232076      -0.27335545       0.10177904
Mn       3.53490341       3.56199494       7.14454060      -0.73619763       1.16310126      -0.06769011
Ni       3.52161105       5.34848408       8.89245773      -0.72111056       0.64832999      -0.18786289
Cr       5.21382068       3.61707287       8.87936066       0.57392439      -0.20310725       0.25877644
Cr       5.30571403       5.35627222       7.11421464      -0.02494825       0.43948101      -0.40192296
31
Lattice="7.378430973536818 0.1161364304809152 0.05514051877383494 0.1161364304809152 7.266198631387603 -0.00974772292815139 0.05514051877383494 -0.00974772292815139 7.29825699238309" Properties=species:S:1:pos:R:3:mace_force:R:3 mace_energy=-421.8473297879937 mace_virial="-3.310103829267364 -6.8683603316134665 -2.3833037881386896 -6.8683603316134665 -1.3376406199170354 1.549842328714465 -2.3833037881386896 1.549842328714465 -4.563662900284055" ood_type=vacancy parent=2175 vac_site=9 vac_Z=25 pbc="T T T"
Mn       0.05394540      -0.03470518      -0.05737396      -0.85989100      -0.85190030       0.31209548
Cr       0.04882941       1.82622115       1.76972198      -0.66212226      -0.04214202       0.95145304
Cr       1.87311766      -0.01218978       1.82585735       0.05977346       0.20612878       0.11453734
Co       1.85720045       1.86986547       0.00635535       0.61966314      -0.47045820      -0.88871582
Fe      -0.00197550      -0.14367681       3.55926764      -0.20249637       0.40086727       0.36694171
Fe       0.00813921       1.74780419       5.38981602       0.66310874       0.30572259      -0.36454101
Fe       1.91705698       0.05884054       5.43910337      -0.14246681      -0.13364398       0.09200841
Co       1.88225435       1.88015326       3.70967318      -0.32195378      -0.21040135      -0.10199176
Mn       0.00699577       3.72483455       0.06471691       0.55939907       0.75238012      -0.69273876
Cr       1.88363957       3.62542720       1.75844318       0.49260090       0.78200426       0.62812006
Ni       1.95289375       5.59512621       0.08628211       0.21142035      -0.75200576      -0.84832847
Fe       0.15589005       3.77274083       3.76166722      -0.21101594      -1.31677099      -0.78975177
Ni       0.14021680       5.35735552       5.34433299      -0.02630680       0.92024622       1.07795016
Co       2.04611130       3.65834167       5.53712230      -0.95078218      -0.03985649       0.14444727
Fe       1.97639560       5.47294462       3.66340284      -0.68250816       0.55677121      -0.27656428
Ni       3.71257851       0.06144591       0.08456322      -0.22072113       0.30318251      -0.55300061
Co       3.69234243       1.79477634       1.86339582       0.09791846       0.64155580      -0.25884830
Co       5.53601315       0.18420894       1.75287959       0.10120109      -0.17137083       0.44417776
Mn       5.55334021       2.00715364      -0.00265703      -0.10235444      -1.54053386       1.00090907
Cr       3.80100608       0.08448965       3.58602900      -0.33269762      -0.02701965       0.39144460
Mn       3.82612101       1.86526392       5.38309437      -0.64111475      -0.77755809       0.68889854
Ni       5.53930193       0.03121048       5.45263472       0.46183843      -0.00724693       0.37863511
Ni       5.59384223       1.91673000       3.77621328       0.49452090      -0.10681088      -1.03939281
Fe       3.74819673       3.61125516      -0.04891657      -0.78734094       0.55951025       1.16302273
Ni       3.74172536       5.47436061       1.86118529      -0.08020386      -0.05226144      -0.48726924
Ni       5.50416729       3.65173676       2.01561489       0.24857049      -0.26522154      -0.63745626
Cr       5.51407396       5.46559738       0.13108050       0.40395302       0.35287947      -0.31682054
Mn       3.68761083       3.75726606       3.70904824       0.55048131      -1.57433337      -1.47311428
Mn       3.81468862       5.40641072       5.46108592       0.56847041       1.74786532       1.35625333
Co       5.64489836       3.58465360       5.55288431       0.24509081       1.11391639      -0.63091972
Cr       5.59163123       5.55120232       3.52684201       0.44596545      -0.30349454       0.24855903
31
Lattice="7.151978006793012 0.09454095674321077 -0.0045804438782207045 0.09454095674321077 7.185099990786414 -0.0019288990883166513 -0.0045804438782207045 -0.0019288990883166513 7.230374914216265" Properties=species:S:1:pos:R:3:mace_force:R:3 mace_energy=-420.4643879959408 mace_virial="5.499852074611259 -8.264948044954856 0.9806970606843035 -8.264948044954856 6.541456465705201 0.842349825186871 0.9806970606843035 0.842349825186871 5.150182383306192" ood_type=vacancy parent=1428 vac_site=16 vac_Z=25 pbc="T T T"
Co       0.04956444      -0.04065248       0.01344796      -0.55517389       0.60708270      -0.25362124
Ni       0.04310282       1.76684774       1.83826994      -0.12530814       0.77183204      -0.24123390
Cr       1.78706593       0.06334486       1.77061113       0.48201825       0.17007074       0.04386258
Cr       1.79182054       1.80937264      -0.00001307      -0.10106382       0.13323203      -0.14992790
Mn       0.00304624      -0.00859146       3.58177664       0.41016686       0.47152399       0.55671841
Ni       0.00528261       1.83484068       5.40797649       0.36853856      -0.46572858       0.00543309
Fe       1.80437795       0.02926309       5.46038413       0.33251136       0.70407847       0.05594561
Co       1.81010372       1.84984153       3.62473759       0.10123829       0.16094488       0.41717791
Co       0.04635530       3.61482831      -0.10784880       0.23413922      -0.38330519       1.14291547
Mn       0.01532915       5.42908265       1.84774863      -0.44348216      -1.41965305      -1.06247613
Fe       1.83849507       3.63237024       1.78176105      -0.54011955      -0.42580324       0.29492411
Cr       1.83316710       5.39842437       0.03463388       0.65086726      -0.25768888      -0.34716141
Co       0.07952760       3.53756460       3.65397747       0.01400965       0.23122212      -0.34055920
Cr       0.06754290       5.45025662       5.46699773      -0.07545327      -0.38845992      -0.50423942
Co       1.86945661       3.52531538       5.43331632      -0.13821876       0.45178127      -0.40666000
Cr       1.87562057       5.41239607       3.56093047      -0.30288733      -0.55330428       0.75746887
Mn       3.61205250       1.88846366       1.80954864      -0.24391436      -0.51817898      -0.38249465
Ni       5.41571481       0.09034417       1.76615974      -0.76361226      -0.29593876       0.29510359
Cr       5.37245664       1.79247194       0.04906202       0.40894403       0.44002544      -0.26635730
Fe       3.57131465       0.03039619       3.67636690       0.07027755       0.36337529      -0.37933496
Co       3.59381912       1.86073402       5.45251909      -0.23215373      -0.45390632      -0.42619954
Fe       5.36400855       0.11904004       5.42873049      -0.30489346      -0.51337565       0.78247551
Mn       5.38117691       1.84744320       3.63702283       0.15982182       0.85160683      -0.40181611
Ni       3.60923194       3.59339830      -0.04532060       0.03307794       0.64521685       0.28130807
Fe       3.60870333       5.46155867       1.83202843       1.22061882      -0.31944736      -0.62736080
Ni       5.35278942       3.67578135       1.83030477       0.45086269       0.17500514      -0.16790772
Ni       5.40841428       5.39654407      -0.08220236      -0.38955350       0.81193664       0.78534293
Co       3.63520241       3.63019393       3.65279698      -0.18839458       0.19732797       0.07705134
Fe       3.67314004       5.50034024       5.39202417      -0.44108547      -0.33272237       0.57204566
Mn       5.41075968       3.72664175       5.46163186      -0.00385469      -0.60898151      -0.39393661
Ni       5.40259024       5.48722214       3.57535894      -0.08792332      -0.24976831       0.28351373
47
Lattice="7.0849082380446 0.04739904855626228 0.10323005593420702 0.04739904855626228 7.057650869830614 0.020363684860595515 0.15484508390131052 0.030545527290893274 10.54609249278187" Properties=species:S:1:pos:R:3:mace_force:R:3 mace_energy=-637.6740776089335 mace_virial="39.51744109414895 -5.604786140523967 -10.524054928090784 -5.604786140523967 41.06940852934264 -2.943311381778442 -10.524054928090784 -2.943311381778442 46.381744973547626" ood_type=vacancy parent=2447 vac_site=5 vac_Z=24 pbc="T T T"
Mn       0.05740209       0.01382903       0.06216278      -0.20250573      -0.03132375      -0.89755963
Mn       0.05666748       1.79308376       1.80140255      -0.43155573      -0.40961442       0.35040163
Ni       1.74561394      -0.00208274       1.87162883       0.70676762       0.44337200      -0.49877932
Cr       1.79958019       1.70529539       0.01308395       0.13609310       0.29525249       0.22248245
Co      -0.01773714       0.06875979       3.50810096       0.54763762       0.20989329       0.21304075
Co       1.90271182       0.04847975       5.31543895      -0.63809435       0.81916900      -0.18135042
Co       1.84125938       1.76918305       3.61730790      -0.01950753      -0.58413072      -0.11352305
Co      -0.04572669       0.04978794       7.12831893       1.47177643       0.63369160      -0.77735180
Ni       0.19800623       1.84485737       8.79189723      -0.47234496      -0.66558074       0.05375897
Fe       2.00135668       0.09820371       8.79111848      -1.12162208      -0.29830257      -0.28404392
Fe       2.00098984       1.84211623       7.05580235      -1.77680477      -0.46056017      -0.41910921
Mn       0.08598885       3.50707563       0.03512748       0.05738089       0.11317229      -0.60033806
Fe       0.04342130       5.29110514       1.79097372       0.43898683       0.04704150       0.05407738
Co       1.77092089       3.40628398       1.73189881       0.92779179       1.14965407       0.82586585
Cr       1.88440434       5.29495496       0.05561685      -0.87945573       0.32507258       0.25355702
Cr       0.06836907       3.49084774       3.46659634       0.52028075       0.03639703       0.92414678
Mn       0.12348147       5.37829159       5.23794271      -0.08281435      -0.47091661       0.43498679
Ni       1.89136137       3.51754082       5.28218142      -0.83174376       0.27126904       0.36781709
Fe       1.86743441       5.40477914       3.53549422      -0.27955134      -0.53196722       0.34289703
Ni       0.04650147       3.43744659       7.10803270       0.86862711       0.52505830      -1.18692267
Mn       0.18230261       5.36466765       8.80867278       0.43852110      -0.78850831      -0.14702986
Cr       2.05049932       3.57411524       8.81374286      -1.24085919       0.16028404       0.05834041
Mn       1.95103386       5.39271803       6.98853481      -0.22640522      -0.94774357       0.47841973
Mn       3.53613669      -0.04868793       0.03957096       0.19626078       0.91119208       0.92699641
Co       3.55142623       1.85215253       1.81282251       0.20534641      -0.75781030       0.40368507
Co       5.38521016       0.09605674       1.75546841      -0.72871616       0.08671587       0.45700882
Fe       5.24435662       1.90278819       0.02823345       0.33197307      -0.63153068       0.55652140
Co       3.56090465       0.02169120       3.56683407       0.44894463       0.77461790      -0.55806520
Fe       3.63335323       1.82381369       5.35602902       0.33041662      -0.71518471       0.12090378
Cr       5.35873014       0.09051762       5.36360739       0.27384264       0.11743067      -0.04008329
Ni       5.36089264       1.84112388       3.53603254      -0.47303510      -0.40357383       0.50682693
Co       3.62771121      -0.01956044       7.15210473       0.97922499       0.14362329      -0.83278362
Cr       3.72428875       1.75834695       8.79738655       0.44937121       0.80849003      -0.17583804
Fe       5.44169640       0.05410647       8.84164562      -0.13355897       0.44653715       0.01458027
Co       5.40578405       1.81222155       7.08196753       0.37042842       0.41772104       0.13586180
Fe       3.49233938       3.55057648       0.03062037       0.47729316      -0.32663089       0.29040183
Mn       3.64006950       5.28031329       1.84645222      -0.42845255       0.19817922       0.42201095
Ni       5.36734493       3.65173260       1.80984155      -0.22756033      -1.46387452       0.27181169
Cr       5.28389131       5.20557729       0.04748354       0.76631572       1.18706121       0.53693542
Mn       3.60856417       3.53681473       3.69964567      -0.08716613       0.23453137      -1.55098459
Ni       3.64651941       5.38928600       5.24735518       0.35036106      -0.27790124       0.77647265
Fe       5.42410092       3.60930552       5.33414511       0.33431205      -0.57569018       1.09678322
Cr       5.46062334       5.32164249       3.53647407      -0.57951195       0.58026091       0.24142021
Ni       3.60265989       3.60920451       7.07198764       1.46375858       0.35408587      -0.34188714
Co       3.77620106       5.37749233       8.90675193      -0.05973546      -0.61366343      -1.18540217
Ni       5.51404280       3.62060143       8.92191420      -0.53966208      -0.68465566      -0.91859246
Co       5.60676441       5.27977513       7.18015704      -1.63104912       0.34938970      -0.62836786
47
Lattice="6.952526033476356 0.03759771870924129 -0.03648259387531102 0.03759771870924129 6.957243651952603 -0.07139907273466473 -0.054723890812966525 -0.10709860910199709 10.50428807556048" Properties=species:S:1:pos:R:3:mace_force:R:3 mace_energy=-634.7738204998881 mace_virial="81.51011324976571 -6.383243148920731 5.397607212447005 -6.383243148920731 78.62161294545938 9.27204037723881 5.397607212447005 9.27204037723881 77.73840513159057" ood_type=vacancy parent=3081 vac_site=43 vac_Z=24 pbc="T T T"
Cr      -0.05900853      -0.11394900      -0.08710233       1.28239598       1.69439264       0.66659231
Co       0.13542997       1.70146654       1.58001301      -1.13951660       0.31721286       0.92647986
Co       1.70945970       0.09634023       1.77760188      -0.07556972      -0.98355557      -0.16534203
Mn       1.84006700       1.65503384      -0.11792496      -0.91640958      -0.17480207       0.51298252
Ni      -0.08887092       0.03843545       3.59496222       0.54048341      -0.37459180      -2.23902267
Cr      -0.12697369       1.72551227       5.24215084       1.30211654      -0.07139253       0.48242373
Co       1.57982498       0.16330788       5.22517954       1.27695744      -1.58829176       0.48603594
Cr       1.73894709       1.86543753       3.53752703      -0.63534887      -1.48024542      -1.49945448
Cr      -0.00097076      -0.05562560       7.14386661      -1.03812512       0.10890185      -1.22641369
Mn      -0.14136801       1.60147845       8.73024484       0.14350748       0.85010831       0.72776255
Co       1.73242547      -0.12064516       8.41671040       0.96148082       1.73505562       4.24021293
Co       1.74135062       1.68148484       7.00193864       0.00769732       0.57748305       0.15752217
Cr       0.03897992       3.63510390       0.04008992       0.54590541      -1.69238162      -0.00677924
Fe      -0.23606038       5.29769035       1.72834502       3.64106678      -0.20741639       1.44454511
Co       1.75593833       3.55664919       1.70733668      -0.20932416      -0.41465042      -0.74773081
Ni       1.76265955       5.38904198      -0.03001565       0.82909945      -0.30647524      -0.04298517
Mn      -0.01405902       3.48627212       3.56272886       0.18892262       0.41030952      -0.56534668
Fe       0.11447004       5.36933203       5.29159808       0.14394328      -1.77529237      -0.64121829
Ni       1.94114929       3.43105717       5.25516826      -2.56291891       1.30001265       0.89085853
Cr       1.82399691       5.16967837       3.46372816      -1.19745593       1.08214147       0.29819441
Mn      -0.06853901       3.42679793       6.88724252       0.72147830      -0.17511794       0.00036589
Cr      -0.03994372       5.14162337       8.73757481       0.93224789      -0.12420263      -1.30611290
Mn       1.61232696       3.43369902       8.80286228       0.02182667       0.12031394      -0.45949613
Co       1.76926525       5.18544637       7.11452971       0.30099955      -2.11118111      -3.18697604
Ni       3.68916210       0.06514272      -0.10999498      -3.53847913      -1.46512984       1.74083430
Fe       3.44911383       1.73318945       1.70242433      -0.50718696       0.31680061       0.65257987
Ni       5.16917297      -0.16056978       1.66980148      -0.86178506       2.02728184       1.52827647
Mn       5.11272294       1.73122354       0.12496192       2.30046919       1.12676912      -0.68658681
Ni       3.42120500      -0.08498803       3.36435468       0.79528807       0.49740894       1.24442786
Mn       3.38051447       1.66987468       5.17590084       1.23327736      -1.54724831       0.98324160
Fe       5.33497790      -0.03605178       5.15683411      -2.26764399      -0.06025825      -0.20049299
Ni       5.05798043       1.79821832       3.50242054       1.20548970      -2.29326146      -2.40654935
Co       3.53135093      -0.11336419       7.00357513      -0.48815353       0.51083769      -1.13754553
Mn       3.48853400       1.68426739       8.77294182       0.04083167      -0.62986899      -1.73016922
Co       5.08867062      -0.05386414       8.82795090       1.01804905       0.50426245      -2.32177455
Ni       5.21652081       1.62836103       6.92271623      -1.19098346       0.57715293       0.45505617
Fe       3.52529438       3.58402116      -0.26232956      -0.40558980       0.17162968       2.45105849
Fe       3.46130983       5.14740033       1.68237500       0.45592521       0.96947037      -0.59297176
Mn       5.27009780       3.59022424       1.74398955      -0.91241466      -1.01453589       0.37824575
Mn       5.39076163       5.24828737      -0.23925954      -2.51025265      -0.51380598       0.77689220
Fe       3.44335385       3.45393939       3.50868930       0.18560644       0.77387883      -1.50402551
Fe       3.61267349       5.10689677       5.19354127      -0.63937972       1.70512035      -0.17822680
Cr       5.16371620       3.34376609       5.03691394       0.24560415       2.49376362       2.02930891
Fe       3.43386224       3.40694556       6.98195377       0.50320719       0.29614740       0.36351991
Ni       3.47625775       5.15350815       8.69928324      -0.43042142       0.64619771      -0.35839534
Co       5.09414793       3.49782271       8.63512226       1.37330733      -1.42057932      -0.33601081
Mn       5.29215160       5.25786468       6.96918694      -0.67022500      -0.38836855       0.10220932
31
Lattice="6.907605900710001 -0.004766191356368557 -0.09492102222143485 -0.004766191356368557 6.925602418167853 -0.034343577434237015 -0.09492102222143485 -0.034343577434237015 6.924413453918606" Properties=species:S:1:pos:R:3:mace_force:R:3 mace_energy=-417.817294421366 mace_virial="51.649716555221126 -1.1141346980338327 7.756887681354377 -1.1141346980338327 56.90620634234075 2.0426773343499507 7.756887681354377 2.0426773343499507 50.853854282366086" ood_type=vacancy parent=703 vac_site=1 vac_Z=27 pbc="T T T"
Mn       0.00764606      -0.01938672      -0.06123696      -0.55955215       0.60915585       1.55704407
Fe       1.74420674       0.13799122       1.60257625      -1.29460123      -0.96796107       1.75911824
Cr       1.66388540       1.70356150      -0.04510262       0.18379150       1.31057883       0.05609469
Cr      -0.01161368      -0.02906835       3.45789369      -0.11159305       0.99484846      -0.99129912
Ni      -0.10918225       1.71591699       5.24289987       0.09593334       0.67742506      -0.58460125
Mn       1.63848991      -0.14014694       5.18756062       0.10248689       1.20209789      -0.66420085
Fe       1.62357761       1.70476958       3.44675546       0.19719284      -0.48649096       0.34744758
Co       0.03272692       3.46111880      -0.06227553      -0.38266943       0.35294666       0.21723519
Co      -0.05472998       5.04210866       1.86919310      -0.98250723       2.04122555      -1.60961629
Fe       1.54775496       3.50816355       1.79326246       2.15487475      -1.96207259      -2.80928971
Fe       1.64022116       5.30585102       0.11091428      -0.46772914      -2.47506464      -1.77768972
Mn       0.09184024       3.36030332       3.36745907      -3.67383306      -0.96638889       1.83077346
Ni      -0.11090756       5.23041135       4.99384858       0.45363758      -2.10808160       1.37694412
Ni       1.67922555       3.37826715       5.13070530       0.10684244       0.73233550       0.83429130
Mn       1.66961569       5.03877366       3.43047844       1.87436378       1.91090080       0.69339321
Cr       3.28561192       0.01616155      -0.13189453       2.23148912       0.34760466       0.55614102
Cr       3.25723239       1.81910228       1.77774306       0.96990593      -0.03360772      -1.22592683
Fe       5.12587538      -0.03614876       1.74144802       0.60451942       0.83374265      -1.18835719
Ni       5.18125266       1.71355898       0.05395892       0.37972585      -0.44352828      -0.75794604
Cr       3.37712526      -0.01786840       3.41948008      -0.38860643      -0.40920486       0.49416590
Mn       3.46914465       1.68880734       5.06493960      -0.30695059      -0.19045669       1.18031097
Cr       5.27424604      -0.02311473       5.21307651      -2.15328832      -0.09007428      -1.20868704
Cr       5.09919607       1.73871008       3.33350929       1.62596732      -1.07224988      -0.39172145
Co       3.56795341       3.45109664      -0.11234103      -1.10509805      -0.09363506      -0.09350257
Mn       3.37834325       5.17989083       1.57221970       0.72077538      -0.44558179       0.48853906
Fe       5.11712104       3.37005431       1.52890931       1.15606655       0.99238268       0.94214767
Ni       5.30871428       5.22652946      -0.08917906      -0.79789806      -0.61624539       0.31382045
Co       3.54792805       3.32244055       3.43342507      -1.94914809       2.43266565      -0.33689439
Ni       3.40581895       5.16560269       5.28552838      -0.06675827      -0.49274492      -1.46847441
Co       5.10045427       3.49875636       5.00444349       1.04512375      -0.08372719       1.41727854
Co       5.00906911       5.28916639       3.28811906       0.33753666      -1.50079446       1.04346141
47
Lattice="7.344543831553225 -0.023323331926059516 0.010508671200373465 -0.023323331926059516 7.208716729903985 0.010516564151960341 0.015763006800560198 0.015774846227940512 11.003271588132153" Properties=species:S:1:pos:R:3:mace_force:R:3 mace_energy=-643.9160450088607 mace_virial="2.0655704782922064 3.022327639970458 0.14838541779409795 3.022327639970458 7.421901004963351 0.4402099655564237 0.14838541779409795 0.4402099655564237 -0.5589375260783632" ood_type=vacancy parent=3015 vac_site=46 vac_Z=27 pbc="T T T"
Ni      -0.02813453      -0.00311304       0.01906312       0.03217982      -0.28811740      -0.04891030
Fe       0.08246332       1.78913441       1.91331409      -0.39221577      -0.98420668      -0.35332400
Fe       1.80493015      -0.06464758       1.81095180       0.68654969       1.18987008      -0.52026579
Cr       1.71675935       1.85342697      -0.13153264       1.30318714      -0.73980978       1.55670442
Fe       0.04854936       0.00717733       3.72266680      -0.48097306       0.28667600      -0.33005423
Mn      -0.07298381       1.71863779       5.50945773       1.31476255       0.83546554       0.48422303
Fe       1.87183110      -0.00406795       5.51009306      -0.25448135       0.23367981       0.43367077
Ni       1.83606325       1.65878305       3.67646641       0.18065407       0.27872148       0.02892437
Ni      -0.01984228      -0.07294651       7.24011088       0.07964270       0.54833013       0.63021411
Cr       0.01030238       1.87326576       9.16182893      -1.32949417      -1.40615564      -0.90482468
Cr       1.84915501       0.01238056       9.30875404      -0.38587413      -0.38643429      -0.84641711
Ni       1.79715190       1.81115634       7.23009833       0.13575600      -0.01574714       0.63366396
Mn       0.00525326       3.53373130      -0.04231963      -1.84566732       0.83230706       0.31382059
Mn      -0.00314750       5.46456000       1.88633932      -1.00387242      -0.34314026      -0.93770069
Mn       1.78180595       3.65395496       1.79604379       1.10393517      -1.05377365       0.30254956
Fe       1.76114268       5.34345672      -0.03618293       0.54517993       0.38164329      -0.36283262
Mn       0.08909930       3.50767010       3.72757545      -0.18142370       0.84928121       0.52128606
Ni      -0.06035936       5.46967316       5.51594403       0.21884014      -0.44732514       0.28447593
Co       1.75597596       3.53157482       5.51180482       0.65104292       0.32228499       0.49901493
Cr       1.72797646       5.51732813       3.69957782       0.24977850      -0.86330957       0.13904387
Cr      -0.15823419       3.56466949       7.44139267       0.88786812       0.23835145      -0.70499698
Cr      -0.11025548       5.35006194       9.11900283       0.49374376       0.21536091       0.99822028
Co       1.72450104       3.58196655       9.20893832       1.48162449       0.84367565      -0.92417145
Ni       1.81133478       5.54789771       7.45434661       0.31108508      -0.89440473      -0.82179745
Co       3.73670613      -0.03064190      -0.04877903      -0.41895210       0.31417724       0.67736927
Co       3.67793144       1.71485200       1.96062769      -0.34626866      -0.27933782      -1.17492438
Fe       5.56782375       0.00087742       1.79018398      -0.41709558       0.60098477       0.13191207
Co       5.57598823       1.64749227       0.09154963      -0.81443555       0.66396138      -0.17999840
Ni       3.64763305      -0.02487772       3.60744998       0.32537248       0.73723381       0.38824465
Ni       3.64343347       1.78735100       5.42942619      -0.21438130      -0.31191909       0.55130666
Fe       5.58387805       0.03068136       5.47323968      -1.24679323      -0.69004061       0.43278016
Fe       5.50481880       1.82390696       3.71929237      -0.77255637      -1.01872799      -0.17500716
Fe       3.60049369       0.09850216       7.37575003       0.24997509      -0.09991070      -0.45524463
Fe       3.72313450       1.82984332       9.23217158       0.36696037       0.90972326      -0.18145429
Mn       5.47455692      -0.12797638       9.18480005       1.45714714       1.98723613       0.12447146
Fe       5.47436600       1.71657677       7.26329266      -0.84365145      -0.06953325       0.47048729
Ni       3.54916770       3.57077925       0.00613933       0.69797060      -0.12746737       0.35724516
Mn       3.67275744       5.44028299       1.92291978       0.35624083      -0.44102738      -0.37218751
Cr       5.53793709       3.45880477       1.95396228      -0.10857721       0.37160723      -0.96349271
Co       5.39580005       5.34394344       0.01034777       0.51226862      -0.10322753       0.60689105
Cr       3.55527576       3.48602297       3.63774393      -0.32611944       0.23170251       0.23456582
Mn       3.67068803       5.42448550       5.33671977      -0.33986911      -0.33582523       1.64886142
Cr       5.41333009       3.57413906       5.51074095       0.36469077       0.02806681       0.04054123
Cr       5.50988716       5.45995359       3.68452597       0.34740451      -0.18954728      -0.15175590
Co       3.62004751       3.49853321       7.44011141      -0.32305144      -0.07154164      -0.57117982
Mn       3.79107431       5.34928315       9.13975137      -1.51271265      -1.88583874       0.30068955
Co       5.52653703       5.37908457       7.48084324      -0.79539448       0.14602816      -1.81063757
47
Lattice="7.393499092913574 -0.005689631110693469 0.015038522113135055 -0.005689631110693469 7.248586370982903 0.06016584930804908 0.022557783169702583 0.09024877396207362 11.27987898467403" Properties=species:S:1:pos:R:3:mace_force:R:3 mace_energy=-644.223069603429 mace_virial="-13.309558528092063 1.3025218769014089 0.35326361187247896 1.3025218769014089 -11.811485073003416 -5.499588700990577 0.35326361187247896 -5.499588700990577 -18.381096406239998" ood_type=vacancy parent=1065 vac_site=31 vac_Z=27 pbc="T T T"
Ni       0.00745490      -0.04852176      -0.00267458      -0.17105166      -0.08051043      -0.19026971
Cr      -0.01613399       1.82292822       1.88063663      -0.08206316       0.34056050       0.17410431
Cr       1.87386037      -0.02009234       1.87457359       0.13650216       0.11388643      -0.38759296
Cr       1.76531756       1.80141636       0.00897433       0.07368628      -0.33261863      -0.17991220
Mn       0.04752686      -0.01030987       3.78905021      -1.01128754      -0.02096142       0.38223084
Mn      -0.02935396       1.89950509       5.70284459      -0.29412895       0.26530292       0.01764604
Cr       1.79889121      -0.01326329       5.64824815       0.74223317       0.50991334      -0.07780781
Mn       1.83534833       1.82134397       3.77581066       0.27415604       0.35643296       0.16445876
Cr      -0.00933738       0.01542280       7.56069850       0.09436717       0.56927996      -0.67027421
Co      -0.00215626       1.94299790       9.37869637       0.07503651       0.07674058       0.09095165
Co       1.83649672       0.04344946       9.41730415       0.13054936       0.18205832       0.24418097
Fe       1.84454196       1.86906277       7.53218705       0.45958807       0.27680023       0.58446051
Co       0.01115508       3.64649400      -0.00915883      -0.69043072       0.07989804       0.00919315
Mn      -0.08540038       5.45807647       1.96479003       0.53638586      -0.78579881      -0.84889500
Mn       1.91290180       3.67526632       1.92352369      -1.13582136       0.26929352      -0.87364244
Co       1.93549988       5.44815480       0.02392332      -0.63764394       0.46541651      -0.04182502
Ni      -0.01307934       3.65045353       3.82639794      -0.09608254       0.18395374      -0.01447356
Ni      -0.00044201       5.50491614       5.69388912      -0.36790136      -0.92357998       0.16141362
Ni       1.89767641       3.70442221       5.66244441      -0.51003632      -0.57418229       0.36873929
Cr       1.88523372       5.47633928       3.80782480      -0.31728487      -0.28523286       0.46094905
Ni      -0.00017298       3.66829184       7.62986568      -0.03944043       0.06293055      -0.37312909
Fe      -0.09711710       5.49660821       9.38418310       0.88511419      -0.31810477       1.37172509
Mn       1.87153870       3.78901321       9.49922857      -0.93143116      -1.26632749      -0.19176047
Cr       1.85291670       5.58746016       7.58152969      -0.31429530      -0.81121758      -0.30910102
Ni       3.67744952       0.09902852      -0.00699236       0.30466284      -0.68741067      -0.10209715
Cr       3.68992004       1.85401631       1.90023352       0.64702552      -0.61306817       0.08248827
Fe       5.61303803       0.00620405       1.90949621      -1.19750923       0.22148352      -0.73121469
Ni       5.51586764       1.78780959       0.03371949       0.42811499       0.11761247      -0.03052060
Co       3.75425562       0.07805432       3.75451182       0.55495366      -0.22818554       0.30994539
Fe       3.70586954       1.83659623       5.64116524       0.64437851      -0.44530217       0.57267454
Ni       5.61053960      -0.05746792       5.67582619      -0.59285223       0.27842851       0.10954757
Fe       3.72985058      -0.00429522       7.55422574       0.14642906       1.24887481      -0.31671183
Co       3.71787600       1.88676889       9.44744918      -0.04639551      -0.19099572      -0.52628761
Mn       5.61784345       0.10673606       9.41552012      -0.71832786       0.99462029       1.19738683
Co       5.54460004       1.85431177       7.53604327      -0.39379686       0.37948697      -0.06003512
Cr       3.75425314       3.66102644       0.01449012      -0.09936358      -0.45593349       0.37428584
Fe       3.70775952       5.41998152       1.96337450       0.93615079       0.93453448      -0.62579743
Ni       5.57318070       3.60628326       1.95727269      -0.05694442       0.41445375      -0.26655758
Fe       5.55974676       5.41602745       0.07314450      -0.02730810       0.05485312       0.17971395
Mn       3.71706274       3.67144611       3.80024409       0.47976222      -0.71052960       0.11397264
Cr       3.66332068       5.42794483       5.70077469       0.57225604       0.61587027       0.25043356
Fe       5.54856365       3.67443225       5.69422224       0.26188591       0.46945590       0.69836341
Fe       5.52304758       5.45409219       3.78362374       0.12541388       0.20204333       0.48591555
Co       3.72944863       3.65869367       7.56388301       0.11939779      -0.56290925      -0.28645517
Mn       3.71498426       5.41395881       9.39194152       0.42394782       1.70029759       0.52277003
Fe       5.52844273       3.69699122       9.46914712       0.86797103      -1.15193970      -0.46416243
Fe       5.60190007       5.56361165       7.66938259      -0.18857177      -0.93967405      -1.35902779
47
Lattice="7.022389603019264 0.043979791004818844 0.04839110607165682 0.043979791004818844 7.047237293013647 -0.12253407969707777 0.07258665910748523 -0.18380111954561665 10.798054402477545" Properties=species:S:1:pos:R:3:mace_force:R:3 mace_energy=-633.7443413275633 mace_virial="46.80922463805121 -4.36872812898549 -4.172149011576854 -4.36872812898549 47.68060779367549 11.719257714343302 -4.172149011576854 11.719257714343302 43.4011152444924" ood_type=vacancy parent=1104 vac_site=32 vac_Z=27 pbc="T T T"
Fe      -0.06306331      -0.10839099       0.06751118       1.33578550       0.81188343      -0.75932739
Ni       0.10746541       1.78924125       1.74209669      -0.76816838      -0.21094701      -0.51107488
Ni       1.89865177       0.05087632       1.94577087      -2.03929286      -1.00035012      -2.22002124
Ni       1.72431167       1.72804980       0.01446657      -0.14078628      -0.13298823      -0.78554077
Fe      -0.02851053      -0.06673519       3.53653061      -0.08161171       0.48339999       0.50465865
Cr       0.01367986       1.56774597       5.39901314       0.13584104       1.85988774      -0.66702926
Ni       1.56538140      -0.08295404       5.37429219       2.02694148      -0.15061012      -0.71511381
Fe       1.73316838       1.85439400       3.39958420       0.25911491      -0.61520008       1.75360120
Cr       0.12228612      -0.15545878       7.24345706       0.10880823       0.82489555       0.11081182
Ni       0.01357837       1.66063787       8.96520680       0.40217150      -0.80092466       0.66688386
Ni       1.79188246      -0.09999891       8.91833292       1.07239343       0.45154259       0.85789255
Co       1.74521303       1.60340092       7.11724092       0.98231842       0.59056043       0.62798833
Ni       0.05822787       3.68556797      -0.20585445      -0.03745236      -0.77545197       0.96022968
Cr      -0.04331479       5.31782664       1.79415356       0.97948525      -0.71142523      -1.13488431
Cr       1.84569544       3.57073101       1.76926761      -0.31770937      -0.26764949      -1.08156968
Mn       2.01100827       5.21715080      -0.05650673      -2.51523997       2.01918042       0.48390177
Co       0.23273845       3.50669857       3.47454903      -2.08340313      -0.24474973       1.33205296
Fe       0.06941951       5.19922101       5.34484659       0.13706421      -0.61637886      -1.37282549
Mn       1.99959453       3.62198187       5.39632765      -2.35943057      -1.85383382      -2.31228802
Cr       1.80738821       5.27316794       3.34091869       0.16595358      -0.34875085       1.26683909
Co       0.01884105       3.30393937       7.28289958       0.91373108       0.47669438      -1.21955564
Cr       0.10019895       5.34805817       8.83346716       0.34187476      -2.10887351       0.88644608
Fe       1.80233305       3.41024744       8.98208418       0.21142386      -1.34486875      -0.85694129
Mn       1.82752283       5.08025751       7.01991027      -0.59162260       2.50122316       1.81947438
Mn       3.73801340       0.08020815       0.00752656      -3.44477146      -1.96070917       0.68150673
Co       3.38688306       1.71380515       1.72234558       1.85357445       0.98175076       0.81028804
Ni       5.43922009       0.04768381       1.80272973      -1.85874268       0.00094924       1.04264181
Fe       5.12497560       1.58560981       0.12361816       3.66873816       3.58936515      -0.78701315
Mn       3.48762330      -0.05429541       3.48097119       1.75101438       0.41325852       1.19860612
Mn       3.60372250       1.78000723       5.21535530      -0.28797740      -2.57141678       1.42166145
Co       5.40240414      -0.09722125       5.62636582      -0.92531090       0.37144673      -2.09286386
Co       5.36620190       1.77180867       3.52901414       0.55570603      -0.15161533      -0.28141807
Co       3.71999232       1.56688667       9.12019928      -1.21272402       0.41018343      -1.38099541
Co       5.34948507      -0.13439182       8.94548286      -0.31157955       0.67286322       0.51377023
Cr       5.34149463       1.63690061       7.21194770      -0.98210935       0.13883270       0.36017801
Mn       3.51164636       3.44769323      -0.00856387       1.04650170      -0.68782605      -0.66585343
Ni       3.60418114       5.21854504       1.68799766       0.64676982       0.46934874       0.98059152
Fe       5.40002212       3.58980239       1.73952116      -0.09807202      -1.24264044       0.26865024
Cr       5.16749492       5.24483745      -0.06190928       0.85991584       0.18352257      -0.55402995
Ni       3.72892374       3.39501327       3.62864726      -1.37554607       0.91212338      -1.57227111
Cr       3.56884120       5.34761839       5.28516920       0.48187135       0.58084088       0.32416142
Fe       5.38318554       3.44230238       5.36260943       0.79225493       0.23200023      -0.00639802
Fe       5.25939086       5.11749233       3.59796692       0.86844628       1.25092563       0.03066707
Mn       3.51511852       3.48369038       7.01373871       2.07939618      -1.35840901       2.79582309
Mn       3.63878231       5.20162561       8.93069460       0.17185491      -0.00341107      -1.59764821
Ni       5.41950499       3.44416978       8.95335028      -1.05219392      -0.11157691       0.07244892
Mn       5.45872846       5.27770999       7.07340721      -1.36520666      -0.95607170       0.80288798
31
Lattice="7.008932007931581 0.06450334160345622 -0.021815997201845135 0.06450334160345622 7.066707848484368 -0.10403438342292884 -0.021815997201845135 -0.10403438342292884 7.184887061846655" Properties=species:S:1:pos:R:3:mace_force:R:3 mace_energy=-420.35917312492217 mace_virial="20.58549791252869 -6.5719987039124925 1.5600619166989576 -6.5719987039124925 21.397960301028217 8.200858282179714 1.5600619166989576 8.200858282179714 18.492504122115875" ood_type=vacancy parent=1203 vac_site=26 vac_Z=25 pbc="T T T"
Fe       0.01697915      -0.03361212      -0.04606905      -0.12466505      -0.57605997       0.01655439
Ni       0.04279622       1.73541522       1.76165775      -0.35199158       0.39660283      -0.18277452
Cr       1.80019369      -0.04429194       1.79603284      -0.45092487      -0.17855324      -0.28891871
Cr       1.76022578       1.78948708      -0.07784640       0.22748898       0.23128694       0.53114861
Mn      -0.02379491      -0.02168810       3.60501449      -0.41013502      -0.39677524       0.18968263
Fe      -0.03375039       1.67978297       5.40775968       0.20174277       0.26854241      -0.19578548
Co       1.72057040      -0.01022006       5.36992103       0.11440217      -0.95920617       0.19031430
Mn       1.74554245       1.75113855       3.52391502      -0.13563730       0.51983565      -0.12444519
Co       0.08309790       3.41466139      -0.06572815      -0.54575583       1.21605786       0.03967523
Fe       0.05252235       5.27015045       1.73911234      -0.42170940      -0.99556193      -0.87056042
Ni       1.79796893       3.54597362       1.71094219      -0.25961487      -0.23223185       0.02655869
Ni       1.83505167       5.23347539      -0.12736016      -0.41935642       0.57546556      -0.01363540
Co       0.06635462       3.48488328       3.50864279      -0.87679830       0.12925521      -0.07012466
Ni       0.09862570       5.13504747       5.33737152      -0.78018275       0.43094164       0.03268359
Co       1.75728993       3.44221229       5.25426595       0.10101884       0.18458305       0.94341623
Mn       1.81948400       5.22560424       3.56340829      -0.86980952       0.24836537       0.29824560
Cr       3.54480140       0.09438949      -0.08458820      -0.37364144      -1.11473737       0.21723308
Mn       3.57449049       1.73967710       1.78116725      -0.06513832       1.32876289      -0.29748742
Cr       5.27446122      -0.03707042       1.81643722      -0.02914723      -0.24136673      -0.41824556
Cr       5.23411242       1.79994842      -0.03796675       0.47288805       0.79043760       0.34969417
Fe       3.42778246      -0.01417514       3.58302232       0.99042902      -0.93300025       0.76777735
Mn       3.49428113       1.76183134       5.37795542       0.40589905       0.28296222      -0.07797262
Co       5.21542627      -0.08534070       5.39707181       0.46855167      -0.33637003      -0.36412560
Cr       5.18215636       1.78187754       3.55137549       0.40138999      -0.01697379      -0.32819271
Co       3.49012846       3.58778411      -0.02824743       0.79724456      -0.05819423      -0.40514066
Fe       3.51868259       5.25905922       1.72069147       0.90097846      -0.01559128      -0.71672248
Ni       5.26066287       5.30582592      -0.09021694       0.57585251      -0.38333293      -0.01934081
Fe       3.52765262       3.65805312       3.51392772       1.00485922      -0.71574965       0.14221878
Co       3.60113669       5.27347599       5.36376567      -0.22550773      -0.62348390      -0.35814179
Ni       5.33981528       3.40565146       5.25055284      -0.43968029       1.48428936       0.78657663
Co       5.31288441       5.27398144       3.52997247       0.11695063      -0.31020005       0.19983476
47
Lattice="6.8664864735546525 -0.07068101224757559 0.04174421114608714 -0.07068101224757559 6.967808980393243 -0.07781298553483047 0.0626163167191307 -0.11671947830224572 10.542224643663063" Properties=species:S:1:pos:R:3:mace_force:R:3 mace_energy=-632.9143579235462 mace_virial="70.98512145367236 6.976644079470186 -4.46422345837847 6.976644079470186 69.55132883507402 9.707682206561373 -4.46422345837847 9.707682206561373 70.2149719443235" ood_type=vacancy parent=3838 vac_site=34 vac_Z=26 pbc="T T T"
Ni      -0.04720264       0.00223832       0.10268594       1.48433475       0.02771566      -1.56151618
Cr       0.10507879       1.62846962       1.76725525      -0.53775238       0.41189878      -0.81467558
Co       1.67566834       0.01847265       1.92590959       1.32619230      -0.98172430      -2.11315721
Fe       1.68123115       1.76532289      -0.21697406       1.00869239      -0.75616906       3.35585446
Fe      -0.09591313       0.03611529       3.58723628       0.76705423       0.18833358      -0.84377405
Fe       0.00530849       1.59268394       5.31639526       0.54722246       0.03518373      -2.39354025
Fe       1.79452272      -0.10258397       5.22707014       0.35463727      -0.15660190       0.97711636
Cr       1.85433508       1.64047105       3.49041562      -0.15211434       0.94552112       0.91111387
Ni       0.06003403      -0.00306980       6.93333158       0.10863824      -1.43164045       1.63356413
Ni       0.07429019       1.54694846       8.87439109      -1.51456559       0.01382612      -1.43947831
Mn       1.77450511      -0.12543123       8.89569553      -0.20143539      -1.13984721      -1.37093799
Cr       1.63467395       1.74776024       7.02420501       2.03180674      -1.22710353      -0.36828396
Fe      -0.00547914       3.47205784      -0.20347796      -0.60124014       0.45046753       1.40821878
Mn      -0.10477233       5.18642937       1.70680234      -0.37311036       0.22899274      -1.26954954
Co       1.56578991       3.47624093       1.67943223       1.30693649      -0.19853061       0.21914678
Co       1.69939177       5.17483210      -0.01904575      -0.16749075       0.97361259       0.47894942
Cr      -0.10841894       3.35803259       3.33409307       1.62520199       0.32059769       1.33090076
Mn       0.01296862       5.18253670       5.15365650      -0.80609534      -0.26931462       2.07753326
Co       1.63132924       3.53083278       5.03704741       1.18162096      -0.72319160       0.66097716
Fe       1.44297351       5.25669086       3.35993220       2.87267666      -0.78425036       0.25139211
Mn       0.07236971       3.18221684       6.83365548      -0.67663741       3.47007528       2.49183967
Ni       0.01335367       5.16193656       8.71655737      -0.36214604      -0.13678377      -0.24436819
Mn       1.78948924       3.36047086       8.85578762      -0.02678231       1.35203148      -1.82622605
Ni       1.73425250       5.11056266       7.16772332       0.36553832       0.08812723      -1.60846727
Ni       3.54797685       0.06071932      -0.10690254      -0.84569403      -0.99363884       1.24991354
Co       3.41342105       1.71922182       1.67683506      -0.63551911      -0.76659414       0.56109014
Co       5.24316974      -0.11385911       1.65712299      -1.88342985       0.89142376       1.62143507
Mn       5.00967503       1.72255946      -0.04042460       1.96577822      -0.59470896       0.10048089
Co       3.49498313      -0.10428170       3.56402616      -0.07442548      -0.67212468      -1.19864883
Mn       3.61788898       1.42836424       5.30304288      -2.77052997       3.33948209      -0.01717613
Fe       5.14126353      -0.06735518       5.38776317       1.09192771      -2.07473926       0.13122954
Mn       5.15630965       1.63608488       3.59309825      -0.73207052      -1.03748064      -1.30324169
Co       3.50151116      -0.01852899       7.00452063      -0.79812927      -2.12617050       1.45040771
Mn       3.45573056       1.58021320       8.68710126       0.22277250      -0.02430794       0.07154868
Cr       5.12847860       1.63511656       7.02342198       0.90409642      -0.28721442       1.20642355
Mn       3.35890055       3.52130667       0.03348106       0.69002098      -0.24104071      -0.33196027
Fe       3.56438233       5.12175087       1.70738105      -1.04042933       0.90998742       0.50753844
Cr       5.20018815       3.21353763       1.86321731      -0.37314135       1.56884877      -1.48351483
Ni       5.21060548       5.19289232      -0.09235100      -0.52109234      -0.43538731       0.67896748
Co       3.50239242       3.41144336       3.55181759      -1.23748019       0.48395671      -0.59019764
Ni       3.51571360       5.10256747       5.31035483      -1.22668118       0.12108719      -0.20011770
Cr       5.18414517       3.34327564       5.17361623      -0.34534213       0.63713875       0.90184052
Fe       5.15921735       5.22674985       3.55976517      -0.89661320      -0.55520666      -0.64269574
Cr       3.45237047       3.33946667       6.97193272      -0.53292775       0.83896916      -0.38532437
Ni       3.66143676       5.21427031       8.85181663      -1.43473344      -0.26284025      -1.12961200
Cr       5.10789787       3.29311595       8.82306953       0.53811904       0.49929660      -0.61340369
Ni       5.17150377       5.10489966       7.07810777       0.37434158       0.08003769      -0.52761481
31
Lattice="7.234702436016697 0.06272910987983178 -0.06052320457886594 0.06272910987983178 7.353780031606309 -0.030418198616835514 -0.06052320457886594 -0.030418198616835514 7.345305807246612" Properties=species:S:1:pos:R:3:mace_force:R:3 mace_energy=-422.77303338353806 mace_virial="-3.9521866927525275 -4.631070814368699 6.6026749714552375 -4.631070814368699 -3.9001458457602856 2.463020977551968 6.6026749714552375 2.463020977551968 -4.603111361504694" ood_type=vacancy parent=1519 vac_site=21 vac_Z=26 pbc="T T T"
Co       0.02544526      -0.03657318      -0.03522897      -0.11591376       0.26429854      -0.40668037
Co       0.04520179       1.84488597       1.82185120      -0.10007199      -0.77707378      -0.00901438
Co       1.72075589      -0.00347936       1.81943472       0.01729476       0.28271851      -0.15272645
Mn       1.79519698       1.84694126      -0.10196347       0.52630420       0.08080887       0.02979869
Co      -0.06547045       0.04436585       3.67644471       0.83821846      -0.17732056       0.31033413
Ni       0.00358786       1.81251912       5.50598660      -0.28755095      -0.30614366      -0.31020899
Co       1.79018609      -0.05120088       5.50077674      -0.78363754       0.04388974      -0.27020746
Ni       1.76777087       1.81154408       3.59379044      -0.20355768      -0.14446121       0.47993612
Cr      -0.02363846       3.67905372       0.03331792       0.39727966       0.01264634      -0.78072808
Cr       0.06345982       5.49741788       1.74294142      -0.00453585       0.60169397       0.33311449
Cr       1.80393979       3.69775558       1.79160968       0.50139528      -0.31233470      -0.09164521
Ni       1.86781340       5.57763739      -0.08145121      -0.09335730       0.05871825       0.00137116
Mn      -0.01863562       3.67779316       3.64276926       1.22429553      -0.43041821       0.63036117
Co      -0.02307955       5.51205643       5.46501671       0.61418682       0.49956005       0.21753800
Ni       1.83339435       3.68806710       5.48772920      -0.31944391       0.18845767      -0.19713298
Fe       1.82292345       5.50853545       3.60277864      -0.79965522       1.10501569       0.38680488
Fe       3.66101028       0.01741594       0.00281498      -0.38562895       0.09126908      -0.36697385
Ni       3.60397140       1.78291741       1.83213306      -0.43102020       0.44490936      -0.48415322
Cr       5.39832209       0.04076708       1.80908864       0.55846847       0.20539396      -0.18791644
Fe       5.40369693       1.87348814      -0.03599915       0.08737563      -0.76351718      -0.59943041
Cr       3.54815537       0.04053372       3.62820893      -0.20150140       0.36321373       0.36419627
Co       5.42006093       0.00712602       5.41381929       0.32351378       0.31911557       0.75413107
Cr       5.38827823       1.88411112       3.61875751       0.08914942      -0.32692322       0.25376696
Ni       3.60140305       3.71534909      -0.07002353       0.41953526       0.02476532       0.10528041
Fe       3.64318166       5.60705611       1.72923051      -0.53271345      -0.34173748      -0.40166599
Mn       5.42968302       3.67857275       1.75596660      -0.76063262      -0.07387064      -0.44888591
Fe       5.45323819       5.58252145      -0.11798921       0.17574835       0.75463958       0.10115334
Mn       3.56837503       3.72923376       3.67387642      -0.65019488      -1.32189832      -0.59485073
Mn       3.62005894       5.54315605       5.44144977      -0.68061483       0.37785437       0.72247521
Mn       5.40950032       3.76701641       5.47042859       0.36376001      -0.96237423       0.66520153
Cr       5.41387536       5.52071655       3.58515431       0.21350490       0.21910460      -0.05324297
47
Lattice="6.923265837458836 0.07417536482861802 -0.004779011964676404 0.07417536482861802 7.039979995442989 0.0036111499168410546 -0.007168517947014607 0.0054167248752615815 10.69348646102807" Properties=species:S:1:pos:R:3:mace_force:R:3 mace_energy=-642.02548780279 mace_virial="56.72889958113072 -9.285844271319329 -0.1155761004560219 -9.285844271319329 52.00062731100178 0.4508081474390664 -0.1155761004560219 0.4508081474390664 52.673276054537276" ood_type=vacancy parent=2887 vac_site=5 vac_Z=28 pbc="T T T"
Cr      -0.03103189       0.01184315      -0.01522903       0.04995588      -0.27003757       0.14766745
Ni      -0.00175187       1.77777529       1.74149964      -0.00640858      -0.53188453       0.49824557
Fe       1.65132865      -0.00481318       1.82775419       0.08686514       0.32945784       0.36793171
Mn       1.78134803       1.70444527       0.00629543      -0.14197287       0.76733753       0.15913912
Co      -0.06941561      -0.02963115       3.53867127       0.26449732       0.81647578       0.23611192
Cr       1.73947044       0.00933521       5.36461530      -0.84376595       0.47833503       0.07113333
Co       1.77427341       1.69981311       3.53712106      -1.04614587       0.34809365       0.11895181
Fe       0.00931857       0.04703055       7.14518522       0.16876257      -0.51858737      -0.41276768
Mn       0.05263692       1.73863518       8.91323775      -1.16512613       0.28793711       0.37266511
Cr       1.76754807       0.04147476       8.90626912      -0.17261823      -0.30221308      -0.51047813
Fe       1.73857596       1.75340009       7.16028077       0.06458280      -0.10649566      -0.23591116
Cr       0.00901393       3.52161998       0.04496811       0.65439554      -0.04484534      -0.01203515
Co       0.11831586       5.26980148       1.80689459      -1.07253673       0.14345366      -0.32147111
Mn       1.76808769       3.51319934       1.81213525       0.22244941      -0.35349200      -0.21604934
Mn       1.80960022       5.35847504      -0.00665545      -0.62764611      -0.92404450      -0.49320010
Cr       0.03441922       3.49644868       3.51411250      -0.17023550      -0.35766736       0.96959350
Ni       0.09647140       5.35751215       5.34241249      -0.66761328      -0.68840255       0.22980794
Mn       1.78829268       3.50946590       5.38413776      -1.30510005       0.10558023      -0.82765952
Fe       1.73522600       5.26865624       3.55566897       0.00410546       0.58414054       0.20471498
Fe       0.06101005       3.53075523       7.18219659      -0.38171370       0.03975802      -0.96572402
Co       0.03789490       5.28560312       8.95701745       0.31293073      -0.14160275      -0.50090707
Fe       1.75046781       3.44549066       8.87686599       0.37734043       1.31036921       0.50616127
Ni       1.74436267       5.29054219       7.12810426       0.31312865      -0.04199985       0.28479766
Fe       3.42781979       0.00924110      -0.01391308       1.11048327       0.01152225       0.40047513
Cr       3.49118480       1.76673077       1.80934739       0.00179760       0.46547283      -0.16282298
Fe       5.22516078       0.04832469       1.76522516       0.05053701      -0.33945592       0.16525525
Ni       5.17228414       1.82064672       0.01916508      -0.05014953       0.12461022       0.15798728
Fe       3.39477085       0.05802864       3.63505073       0.85925438      -0.70255091      -1.03037062
Mn       3.41882494       1.75580796       5.33199438       0.42411849       0.61241824      -0.31679544
Mn       5.16918465       0.13271684       5.38271579       1.04631631      -0.31299971      -1.15151474
Co       5.19756376       1.80149591       3.49310303       0.24543329       0.01850445       0.80701750
Co       3.42583779       0.02161272       7.10929590       0.12742582       0.11575322       0.32823948
Ni       3.49917863       1.80750261       8.94458046       0.05029781      -0.09797765      -0.24665941
Mn       5.18904081       0.09048370       8.94540875      -0.33920996      -0.51106533       0.08637850
Fe       5.17401415       1.77504384       7.08896084       0.59446543       0.40012681       0.40911924
Co       3.52404848       3.63979255      -0.05707353      -0.33046648      -0.72644938       0.35404328
Cr       3.48441234       5.29374999       1.83464243       0.56688758       0.13824186      -0.00421125
Ni       5.22984909       3.54029011       1.83273183      -0.35456651       0.61148531      -0.47129346
Ni       5.25816434       5.29059071      -0.02946143      -0.39027801       0.52069735       0.61131282
Ni       3.45678036       3.55550526       3.61831812       0.74204436      -0.36767962      -0.28353425
Cr       3.55274919       5.30603901       5.27298580      -0.25751959       0.18333278       0.41271972
Co       5.19768357       3.59173209       5.35983998       0.87615090      -0.74604355      -0.29346135
Co       5.32653283       5.37613564       3.55195133      -0.44869709      -0.36738125       0.08858245
Mn       3.54255048       3.52575421       7.12063221      -0.37712638       0.26079358       0.73035267
Ni       3.48320471       5.34922873       8.89793839       0.18350018      -0.38128030      -0.13590428
Cr       5.21846753       3.57791617       8.93004253       0.13183942      -0.20281818      -0.30158700
Mn       5.21348319       5.33616229       7.13095917       0.61933078       0.36307687       0.17595336
31
Lattice="7.083071223280446 0.03780257135441875 0.05556695188942537 0.03780257135441875 7.340314531178244 0.04745792639860557 0.05556695188942537 0.04745792639860557 7.258151317986022" Properties=species:S:1:pos:R:3:mace_force:R:3 mace_energy=-421.97802144250045 mace_virial="10.159363248674694 -3.160153941712937 -3.1721505510838637 -3.160153941712937 5.775504499292761 -3.411594599772963 -3.1721505510838637 -3.411594599772963 6.276364567456806" ood_type=vacancy parent=1155 vac_site=27 vac_Z=24 pbc="T T T"
Co      -0.07898892       0.01185477       0.03426445       0.38847062      -0.12216106      -0.60288641
Fe       0.01329783       1.91437209       1.92716821       0.51313308      -1.41143250      -0.97263655
Mn       1.77275687       0.06298066       1.89337326       0.36860252      -0.22188195      -0.71445498
Ni       1.77139533       1.80356345       0.05174581      -0.03766212       0.30414667      -0.12907400
Ni       0.07430177       0.00120943       3.61190916      -0.96806715       0.07907496      -0.02185702
Fe       0.03691593       1.98545537       5.44825396       0.15610047      -0.68137445      -0.43488864
Mn       1.69338311       0.00171968       5.35320710      -0.24009825       0.97027702       1.26047563
Co       1.82174259       1.95569381       3.51106050      -0.09051572      -0.85498733       1.65512078
Mn      -0.00445728       3.61958660      -0.00180143       1.58757148       1.56074269       0.26271552
Ni       0.06412281       5.53477174       1.78864017      -0.23024491      -0.06296029       0.07621772
Mn       1.86434481       3.69698589       2.01298683      -0.74925586       0.30082585      -2.66500510
Co       1.85753622       5.59750528       0.12579945      -0.47602608      -0.33044660      -0.49486580
Cr       0.00773566       3.60152389       3.57519378      -0.15370244       1.10069854       1.03719363
Co       0.01874099       5.42625066       5.48750956       0.01362932       0.73475273       0.28604253
Co       1.92216616       3.74951091       5.51527734      -0.22099813      -0.01670270       0.19610802
Cr       1.75906268       5.46460524       3.72309253       0.05251698       0.23597162      -0.35247099
Ni       3.61767203       0.07395631      -0.03629366      -0.52693112      -0.30711603       0.46887523
Co       3.57539987       1.93224555       1.87621503       0.06182654      -0.38972414      -0.37039707
Cr       5.25917533       0.02511157       1.76461802       0.47483304      -0.53392961       0.39132344
Mn       5.29359771       1.97168590       0.10434541      -0.48344087      -1.78666671      -0.74645919
Cr       3.50076619       0.07425069       3.67749720       0.74090272      -0.47940437      -0.40748116
Cr       3.66149614       1.87620841       5.47154133      -0.46707184       0.56214495      -0.09852170
Ni       5.38710310       0.08652691       5.43251532       0.69180037      -0.30658741       0.21350700
Fe       5.42919355       1.80052318       3.61347674      -0.77061278      -0.42877691       0.81047562
Co       3.56532085       3.74194731       0.02966888      -0.45085966       0.11658321      -0.02378572
Fe       3.60985552       5.47637087       1.80462675       0.38966342       0.98809697      -0.65575882
Mn       5.38676473       3.68890540       1.88544780      -0.58591876       1.38369457       0.03317653
Mn       3.61849686       3.76557088       3.62001985       0.39550412      -0.33503205       1.87779786
Fe       3.58800255       5.74128414       5.57565370       0.87896970      -1.05266652       0.39142731
Fe       5.34570146       3.91412599       5.52279853      -0.43053748      -0.49826065       0.26966805
Ni       5.36448858       5.43457458       3.74984415       0.16841880       1.48310150      -0.53958172
31
Lattice="7.019250213965582 0.0029804512966165237 0.01571804889669577 0.0029804512966165237 6.869661865310817 -0.11477730315446227 0.01571804889669577 -0.11477730315446227 6.974728873255215" Properties=species:S:1:pos:R:3:mace_force:R:3 mace_energy=-420.0668890783358 mace_virial="45.387696477554755 -0.49736089209138723 -1.3461745998951018 -0.49736089209138723 49.63121909494789 10.820044142917183 -1.3461745998951018 10.820044142917183 49.23055606296702" ood_type=vacancy parent=338 vac_site=0 vac_Z=25 pbc="T T T"
Ni      -0.09003980       1.77298054       1.67639232       1.23810146      -1.64775939      -0.07161551
Fe       1.76809932      -0.04692304       1.77822083      -0.88411424       0.51057113      -0.57286015
Co       1.79085731       1.74341379      -0.02979645      -0.99499293      -0.58041133       0.33922444
Co      -0.06005891       0.00141079       3.47807490       0.65433892      -0.40252609      -0.47302838
Ni      -0.00417006       1.63487238       5.10759929       0.09169041       0.18888281       1.16909460
Cr       1.81485523      -0.13256894       5.20100150      -1.89927925       0.80123241       0.78450867
Co       1.81430904       1.67541449       3.44773376      -0.85004567      -0.82840761      -0.22129051
Cr      -0.01240031       3.44803981      -0.07116547       0.28616908      -0.47294675      -0.12756831
Cr      -0.00200751       5.13842766       1.65986253      -0.36427731       0.29334371      -0.27942047
Mn       1.79752927       3.36948417       1.75898458      -0.84442424      -0.17709035      -1.19321118
Fe       1.74750636       5.17552954      -0.10664364      -0.67208822       0.19679927       0.27772444
Ni       0.10448676       3.38833463       3.38590353      -1.22535012      -0.52051206       0.17488935
Fe      -0.07612286       4.94238504       5.04166296       0.28611615       1.37075744       0.87959116
Mn       1.75308836       3.29968713       5.10636186      -0.43219779       0.19193456       0.80254001
Mn       1.72194780       5.09536601       3.37857705       0.16485221       0.33180361      -0.06199148
Fe       3.50916790      -0.00459569      -0.03258325      -0.31259594       0.23846872       1.13180245
Mn       3.52508022       1.63430019       1.74509064       0.30689976      -0.09969668      -0.24647066
Co       5.28799631      -0.03756712       1.73053564       0.01769812      -0.10797166       0.04298971
Ni       5.18989616       1.74825871       0.05805402       0.81278169      -0.33249597      -1.06468388
Ni       3.43143960      -0.13289616       3.56950037       1.11316013       1.01136685      -1.60274204
Cr       3.51441716       1.73720161       5.25350343       0.28718698      -0.69020990      -0.22628209
Mn       5.23989399      -0.12073043       5.23813074       1.19102115       0.91865409       0.78510173
Mn       5.27059675       1.68701272       3.49796040       0.36411870      -0.33305886      -0.38330656
Fe       3.45763425       3.48854972      -0.03387569       0.78599929      -0.33084228      -0.27405381
Ni       3.50893062       5.04659077       1.65142024       0.09965618       1.25973442       0.67656776
Cr       5.32612917       3.41197935       1.73314687      -0.83864391       0.73020161      -0.11889728
Cr       5.20548305       5.19038807      -0.10319305       0.64075437      -0.08069788       0.25582719
Fe       3.53799162       3.34551981       3.43121781       0.38754250       1.04566990       0.06917546
Mn       3.46904087       5.14212800       5.11364298       0.53062792      -1.80248505       0.12685868
Co       5.26026410       3.37159221       5.16138924      -0.02672566      -0.13938243       0.28673038
Co       5.24985127       5.15720394       3.45117228       0.08602023      -0.54292623      -0.88520370
31
Lattice="7.068296015065709 -0.07430986519202873 0.029022628646948222 -0.07430986519202873 7.01762233464772 0.011103276935306997 0.029022628646948222 0.011103276935306997 7.194043966218402" Properties=species:S:1:pos:R:3:mace_force:R:3 mace_energy=-418.9582660056644 mace_virial="27.62316270623224 6.309799784115103 -2.722365769685399 6.309799784115103 32.772989596727854 2.496603769716651 -2.722365769685399 2.496603769716651 29.592450437633705" ood_type=vacancy parent=310 vac_site=13 vac_Z=24 pbc="T T T"
Co      -0.04471373      -0.14785735      -0.02383178       0.71311802       0.42567958       0.22501043
Ni      -0.11901818       1.69844900       1.75625897       0.67655478      -0.15158399       0.22182991
Co       1.83285557      -0.14193850       1.84845150      -0.71850724       1.03883258      -0.36471734
Cr       1.80856437       1.83566325       0.21406071      -1.85629193      -1.99821852      -0.58379914
Ni       0.04796374      -0.05184809       3.57107918       0.11041861       0.48298261       0.35207936
Fe      -0.07124891       1.62682264       5.26205416       0.68466921       0.03511899       1.52361613
Fe       1.71906615      -0.01871971       5.48598883       0.16292913      -0.52646450      -0.69525378
Co       1.57380391       1.79400219       3.53669363       1.28190548      -1.29023592       0.10826035
Mn      -0.18764612       3.51556775      -0.01871150       1.23357905       0.13273725       0.14897408
Co      -0.15774608       5.32577474       1.88233422       0.96939169      -0.72720299      -0.86631189
Mn       1.78544530       3.45008265       1.76244269      -0.80857427       0.70021861       0.03219956
Ni       1.76928708       5.28676462       0.02918305      -0.68888320       0.09041411       0.33410194
Fe      -0.06056108       3.36864510       3.69808882       0.10979654       1.06137229      -1.43610815
Cr       1.71254660       3.66365927       5.39513103      -2.16866251      -1.16210342       0.17179479
Mn       1.71325595       5.16075469       3.59627118      -0.55373450       1.00951505      -0.00336380
Fe       3.55598711       0.02218210      -0.10271414      -0.78751444      -1.38372678       1.02810822
Cr       3.72802380       1.75552993       1.83270279      -1.96217829      -0.93193814      -0.75922735
Cr       5.26662639      -0.04942519       1.98125506       0.92992494       0.07630607      -1.70708332
Ni       5.30631637       1.50336831      -0.09238883       0.45671443       2.30672243       1.82297728
Co       3.60394029      -0.07854798       3.53957518      -1.40339753       0.81739009       1.97032948
Mn       3.40354997       1.94187328       5.63978384       0.11721876      -2.50977373      -3.02331534
Ni       5.27941473       0.02944560       5.55394976      -0.36714578      -1.99677724      -2.67792872
Fe       5.20298598       1.73844865       3.61426851       0.71750390      -1.22114746       1.09462288
Co       3.32402934       3.50005933      -0.13646559       2.51323737       1.87397717       2.59025251
Cr       3.56550482       5.29242067       1.81653013      -0.43682799      -1.17613851      -0.30396862
Cr       5.23361408       3.33212512       1.84164795       0.21211260       1.36294286      -0.46067954
Fe       5.23098988       5.23432047       0.06602269      -0.60181923       0.00102988      -0.80157657
Ni       3.37999690       3.27892496       3.62656521       0.79631274       1.40458002      -0.00032602
Co       3.38632743       5.05841670       5.32670559       1.61071354       2.31987138       0.45269347
Mn       5.30686486       3.44813162       5.36132664      -0.51843905       0.52093088       0.84663749
Mn       5.30461109       5.25806825       3.66958970      -0.42412483      -0.58531067       0.76017172
31
Lattice="7.305342031100823 0.036122947725136564 -0.02122440894756749 0.036122947725136564 7.2905508093212745 0.09344798393811508 -0.02122440894756749 0.09344798393811508 7.18895086214047" Properties=species:S:1:pos:R:3:mace_force:R:3 mace_energy=-424.1559048218263 mace_virial="7.692785942447419 -1.9012285115897092 2.738984323103132 -1.9012285115897092 2.5247219807334376 -4.6627233257930785 2.738984323103132 -4.6627233257930785 6.339890381942459" ood_type=vacancy parent=3096 vac_site=0 vac_Z=28 pbc="T T T"
Co      -0.07158198       1.82200364       1.71732947       1.14176874      -0.14489805       1.04763748
Fe       1.86220607      -0.01354393       1.80212265      -0.34127837       0.61770883      -0.32011049
Co       1.86187004       1.91357534       0.00612036      -0.00292271      -0.58590542       0.73115308
Mn      -0.11764625       0.03789424       3.59801414       1.01050182       0.36102918       1.01207948
Cr      -0.04478114       1.99996211       5.42394637       0.71794358      -1.71684644      -0.11538590
Mn       1.88112376       0.09269288       5.37909812      -0.79199173      -0.07712752       1.09134353
Fe       1.81911792       1.92817222       3.66719395      -0.41359582      -0.05808093      -0.89872455
Cr      -0.01725052       3.50384249      -0.01924810       1.00251522       1.53927043       0.93815856
Mn       0.04837657       5.55257629       1.93316700      -0.05203939      -1.04245399      -1.25904583
Fe       1.90069342       3.75146095       1.93446421      -1.09297283      -0.42813314      -0.74483287
Ni       1.88925599       5.46131914       0.05797742      -0.41573225       0.12400892       0.47974759
Co       0.00904522       3.63319973       3.70139385       0.03407509       0.61432938      -0.75958492
Co      -0.06329984       5.56760666       5.57857635       0.39386075      -0.08245777      -0.70277027
Mn       1.88800700       3.79898637       5.49899739      -1.30299814      -0.38403513      -0.35648504
Fe       1.89232688       5.54424065       3.72702518      -0.92217532       0.38868508      -0.63740943
Cr       3.71315896       0.00232737       0.05015918      -0.19242888       0.55594325      -0.51889070
Co       3.56394598       1.79735254       1.87257506       0.30555529       0.57596867      -0.50580269
Fe       5.56567303       0.03268630       1.81178641      -0.82151749       0.26071784      -0.86224475
Cr       5.55207760       1.96223943       0.03978859      -1.42758460      -1.46874671       0.11051251
Cr       3.68637916       0.11412282       3.61627148      -0.33863674      -0.96647962      -0.10434576
Ni       3.61238850       1.90813287       5.36397991       0.37104693       0.23942883       0.44813476
Co       5.44702071       0.06336742       5.39591361      -0.07754184      -0.01908225       0.38364991
Cr       5.40561150       1.75099146       3.62889949       0.26741455       1.89076503      -0.45443165
Mn       3.63936746       3.63492475       0.04131794       1.14977457       0.15681353       0.63808418
Ni       3.73470224       5.53761285       1.81646356      -0.36335663      -0.12715936       0.44883992
Co       5.49997034       3.74542610       1.76578672       0.00481899      -0.27565532       1.03067829
Cr       5.54775247       5.51588575       0.04704068      -0.23124047      -0.22024084      -0.17785143
Mn       3.58157219       3.80771281       3.61725221       2.02433708      -1.23266929      -0.07882977
Ni       3.56420051       5.50627291       5.42511048       1.34818311       0.39675734       0.35379680
Ni       5.53129558       3.62273801       5.40657696      -1.19407350       1.32819291      -0.61657370
Fe       5.45091685       5.51272737       3.68190432       0.21029098      -0.21964745       0.39950365
31
Lattice="6.998339681630788 -0.034101129021010874 -0.07885428105803292 -0.034101129021010874 6.967720694700035 0.06643634140921659 -0.07885428105803292 0.06643634140921659 6.943201875186305" Properties=species:S:1:pos:R:3:mace_force:R:3 mace_energy=-421.5703590647993 mace_virial="41.40226985391023 1.5015388454234442 6.052444939721274 1.5015388454234442 42.23201314817029 -5.868144997674781 6.052444939721274 -5.868144997674781 40.75934185140359" ood_type=vacancy parent=1381 vac_site=1 vac_Z=27 pbc="T T T"
Fe       0.01060611       0.02402056      -0.00575559       0.52212956      -0.10819209       0.91579668
Co       1.71324468      -0.03688128       1.77819035      -0.27877703       0.77359300      -1.03820963
Co       1.75924408       1.73036063       0.00531117      -0.66609950      -0.53424809       0.10189855
Co      -0.08309475       0.04278032       3.39994897       0.11153037       0.27237519      -0.16320587
Fe      -0.05802505       1.76625044       5.20715130       0.29561798      -0.11108935       0.03619309
Ni       1.72625624       0.00014547       5.20676778      -0.65452935       0.76030868      -0.29634936
Mn       1.68487472       1.73374402       3.42876232      -0.06474939      -0.38727313       0.05665294
Fe       0.00506462       3.51600481      -0.00251267      -0.59141069      -0.75343996       0.50908516
Fe      -0.07356352       5.18302557       1.81090657      -0.08396808       0.95386136      -0.76749707
Mn       1.72624995       3.46401862       1.71802584       0.20738444       0.03701790       0.06037390
Ni       1.68914188       5.26413115       0.03805602       0.21966231      -0.09029023       0.62384984
Mn      -0.07148097       3.53632889       3.49989391      -0.66065153      -0.78789074      -0.02589657
Cr      -0.03865936       5.30292739       5.28345395      -0.63286355       0.05243024      -0.39013235
Mn       1.63153365       3.53811466       5.24443476       0.34660604      -0.39285126      -0.09907073
Cr       1.66552707       5.26404920       3.45988380       0.08767785      -0.23183344       0.23166466
Fe       3.48493671      -0.03210640      -0.03004144      -0.33911564      -0.16280745       0.69982593
Ni       3.46255422       1.74482620       1.70718795       0.14345792      -0.06025191       0.03066290
Co       5.21432488      -0.04819180       1.62523520       0.43269740       0.12947648       0.33786253
Mn       5.22573908       1.70634614      -0.04413188       0.52913137       0.80549598       1.08029844
Cr       3.43850624       0.01455476       3.39229965       0.53478278       0.13228627       0.06936274
Fe       3.41776146       1.74839092       5.24674942      -0.14729106       0.45501284      -0.84926136
Cr       5.18699974       0.06216128       5.18586873      -0.15521174      -0.54147420      -0.18186716
Cr       5.17316408       1.71928167       3.43116542       0.25572382       0.20421371      -0.49223118
Cr       3.45664684       3.49678468       0.00386645       0.29693140      -0.11109739       0.05557678
Co       3.44616828       5.27447159       1.74299862       0.42036548      -0.59737208       0.15487316
Co       5.27005314       3.46355409       1.71099419      -0.54353792      -0.08641299       0.07829223
Ni       5.20652377       5.15217330      -0.02659584       0.27949011       0.40636464       0.24248844
Ni       3.46339080       3.53471965       3.53782094      -0.21913907      -0.44211149      -0.78990133
Mn       3.36394653       5.28480503       5.20903138       0.73932604       0.02898026      -0.02182386
Ni       5.18329724       3.50187373       5.18551878      -0.00401888       0.08973081       0.06589828
Fe       5.19541914       5.22451592       3.46820208      -0.38115144       0.29748842      -0.23520980
31
Lattice="7.271928543912606 0.0959386688494926 -0.07272088288682688 0.0959386688494926 7.336059384655242 -0.01877831782171063 -0.07272088288682688 -0.01877831782171063 7.148742689582784" Properties=species:S:1:pos:R:3:mace_force:R:3 mace_energy=-425.1394966899484 mace_virial="14.788803648593548 -6.5658403523619295 4.995930302095563 -6.5658403523619295 12.557932009311426 1.7145016180198769 4.995930302095563 1.7145016180198769 15.823912009016357" ood_type=vacancy parent=3326 vac_site=23 vac_Z=28 pbc="T T T"
Fe       0.02753745       0.15746718       0.02696690       0.06232706      -1.67022314      -0.27412193
Mn       0.04502766       1.77464507       1.75125894       0.42497455       1.11035631       1.63468098
Co       1.84471290       0.01549650       1.74938350      -0.29047108      -0.31524413      -0.09553615
Co       1.81739113       1.94390319       0.09489036      -0.23914199      -0.32407768      -1.22552488
Co       0.01822432      -0.14540991       3.35682455      -1.15769201       1.53215187       1.63959403
Mn      -0.01326746       1.76094751       5.39008997       0.18233379       1.32068350      -0.88040223
Mn       1.76624172      -0.00288906       5.25165442       0.12363004       0.87278396       0.99883059
Cr       1.77687933       1.92648629       3.66994748      -0.11126128      -0.81105928      -0.83756010
Ni      -0.04848753       3.59337901       0.03432575       0.78641125       0.71138650      -0.46856871
Ni      -0.01176398       5.70442720       1.68508969       0.61879162      -2.11783109      -0.24333138
Cr       1.94203483       3.78248483       1.66406525      -1.89960744      -0.15690629       1.01381613
Mn       1.89162831       5.42335932      -0.09074125      -1.30321108       1.31160655       0.27783764
Ni       0.05015489       3.63439626       3.64799146      -0.30038794       0.40052281      -0.69754718
Ni      -0.02007356       5.46130362       5.44969728      -0.31576718       0.34026171      -0.32373234
Fe       1.97784857       3.69797249       5.34417234      -1.95728158      -0.44287109      -0.76133221
Mn       1.67702927       5.61370488       3.63738888       0.82803071      -2.46841225      -1.29622746
Mn       3.60844649       0.22400071      -0.05032780       0.07612942      -2.14497568       0.60269873
Cr       3.56296498       1.90067984       1.68124316       0.98189921       0.12236747       0.52588766
Co       5.52276138       0.13053326       1.73415431      -0.93183625      -0.14411502      -0.08349902
Fe       5.48156485       1.87629273      -0.14092813      -0.03435289       0.17170072       0.84172494
Cr       3.65661658      -0.07937965       3.48305411      -0.37184638       1.05472195      -0.09555514
Co       3.54630017       1.84218765       5.51397211       0.28389932      -0.15732066      -1.51469802
Fe       5.42756222       0.15510683       5.19853692       0.07434985      -0.57154104       0.11001680
Mn       3.64236087       3.72253083      -0.18413532       1.98829459      -0.62733060       0.93303131
Mn       3.65820656       5.35655757       1.74887055       0.93824315       1.19032981       0.47800022
Co       5.64005889       3.57473065       1.59904595      -0.96028075       1.22059302       0.90533769
Fe       5.56265663       5.63972042       0.02506822      -0.10675647      -0.21648991      -0.80901137
Cr       3.70816953       3.47843094       3.51579427       0.40427332       0.52093048       0.28881086
Ni       3.61036778       5.56364642       5.31216370       0.74751005       0.08090805       0.10749242
Cr       5.45018266       3.61828344       5.26345059       0.18799219       0.48886490      -0.05091595
Fe       5.44679753       5.53379470       3.58260374       1.27080419      -0.28177174      -0.70019593
31
Lattice="7.1346156187556655 -0.04322067418435091 0.06872565049906232 -0.04322067418435091 7.310907043585046 0.07622904635623069 0.06872565049906232 0.07622904635623069 7.155692294472671" Properties=species:S:1:pos:R:3:mace_force:R:3 mace_energy=-420.5796307669698 mace_virial="17.57406532728218 2.9844392181443955 -4.580742352336653 2.9844392181443955 13.181567908596055 -3.495074073034765 -4.580742352336653 -3.495074073034765 14.86572320183126" ood_type=vacancy parent=3673 vac_site=15 vac_Z=25 pbc="T T T"
Ni       0.04859559       0.01720285      -0.15669531       0.48572383       0.45689865       1.03090047
Fe       0.12764486       1.75781784       1.88013342      -1.20299811       0.51465608      -0.99249126
Mn       1.80108637      -0.07661967       1.87296405      -0.03584732       0.25872652      -0.10936846
Cr       1.82292145       1.85462225      -0.16970366      -0.42848094      -0.15088685       1.43879360
Cr       0.11915406       0.31864865       3.68918745      -0.99252949      -1.68528851      -0.39223016
Fe       0.17603831       1.86366930       5.37302890      -1.74808509       0.49274715       0.30594639
Ni       1.89372256       0.04414446       5.28483934       0.62878726      -0.59268542       0.28272317
Co       1.93322592       1.86377508       3.69104150       0.24059686      -0.10167712      -0.00348497
Fe      -0.03995805       3.62876148      -0.02701768      -0.04629821      -0.92084798       0.77245476
Co       0.12043827       5.55695732       1.61671191      -1.38513128      -0.28659651       1.22122638
Mn       1.61286400       3.63689961       1.87999095       1.94833553       0.07674775      -0.41970896
Ni       1.80842573       5.42957217       0.11771384      -0.16169267      -0.24207448      -1.19230184
Cr       0.05687853       3.85086589       3.45212820      -0.53629323      -0.30481890       1.26250125
Cr      -0.10806125       5.50496062       5.56601711       1.86624625       0.39906550      -1.03633957
Cr       1.81345551       3.77594849       5.27377946      -0.80408420       0.59764214       0.51090712
Cr       3.51549924      -0.15914943      -0.00919782       0.94080298       0.73020330       0.11335368
Co       3.55739034       1.71611616       1.99582451       0.01019847       1.25524993      -1.68512678
Fe       5.59976991      -0.07435674       1.85509748      -0.57347122       0.67835561      -0.33908752
Co       5.26891005       1.85379704       0.22104186       0.95047374      -0.91714330      -0.47619746
Ni       3.69658577       0.01620747       3.44250492      -0.65670698      -1.07904401       1.68692936
Ni       3.72650823       1.81385863       5.53703335       0.25858533      -0.07940695      -0.76511468
Ni       5.54010137      -0.06947792       5.52084629      -1.47475017       1.48384373      -0.68658263
Co       5.09040515       1.83439975       3.66996008       1.88518527       0.15948132       0.08458213
Mn       3.67163943       3.64593566      -0.02911235      -0.80356697      -1.10505096       0.31428545
Mn       3.54283026       5.37205748       1.81308695      -0.14070547       0.49309380       1.67332895
Cr       5.29217008       3.73207846       1.99601181       0.56777819      -0.63428342       0.03472730
Mn       5.41866488       5.43436718       0.10233906      -0.40801596       0.81701512       0.55217953
Co       3.44440282       3.63531134       3.82565187       1.31877486       0.35844112      -1.37316241
Fe       3.59193688       5.44434847       5.46956197      -0.53389510       1.43507423      -0.86891352
Cr       5.43495436       3.81623347       5.34949632      -0.05334803      -1.72009089      -0.39924844
Fe       5.28790035       5.65927413       3.75175402       0.88441186      -0.38734665      -0.54548090
47
Lattice="7.301029172971735 0.045703525067445246 -0.027059653663095932 0.045703525067445246 7.512653754579176 0.05022390165258583 -0.0405894804946439 0.07533585247887874 11.214030312202958" Properties=species:S:1:pos:R:3:mace_force:R:3 mace_energy=-640.0630129058982 mace_virial="-7.868892875677988 -7.794687910752591 2.282462109217802 -7.794687910752591 -10.044206579368975 -4.423793137145056 2.282462109217802 -4.423793137145056 -11.58119677357963" ood_type=vacancy parent=1720 vac_site=7 vac_Z=27 pbc="T T T"
Co       0.08596320       0.01068740      -0.03998707      -0.31963060       0.03792864       0.82846368
Fe      -0.06482502       1.81532438       1.85595630       1.21510103       0.43682769       0.33883920
Fe       1.92334943       0.06578038       1.89982996      -1.28936733       0.76226208       0.00391176
Mn       1.93705820       1.95064350      -0.08797207      -0.54822455      -0.17326926       1.01161263
Mn       0.06165652      -0.01727578       3.88421682       0.05571795      -0.32197714      -0.99662603
Mn      -0.04803488       2.10277498       5.60072194      -0.00271801      -1.72609375       0.51110598
Mn       1.77247088      -0.15086969       5.78286827       0.21692584       1.74314926      -1.36912226
Ni       0.10736992      -0.03378823       7.32914669      -1.55018373       0.68785630       1.00962099
Cr       0.13324474       1.90703454       9.16242159      -1.02002267      -0.16539122       1.16321001
Mn       1.70188532       0.17003798       9.46127056       1.17161649      -1.03482394      -1.38119140
Fe       1.76064005       2.07489045       7.41160959       0.98365504      -1.21687530      -0.78910063
Fe       0.03860846       4.00425303       0.04221667       0.78053117      -1.21735906       0.10108286
Ni       0.01632979       5.88596607       1.92313937       0.86667298      -1.00492236       0.09479641
Fe       1.92108571       3.58055876       1.73348551      -0.54936318       0.84491119       1.49917539
Ni       1.78027871       5.69972672      -0.02637933       0.48075363      -0.43953524       0.23228469
Co      -0.08489532       3.88145576       3.71248970       0.54838448       0.84891692      -0.47558378
Ni      -0.15508522       5.63132331       5.76758917       0.65520158      -0.38765304      -0.48511528
Cr       1.61121407       3.73026347       5.34501027       1.63219409       0.90698717       0.61333491
Co       1.95660826       5.80143276       3.64958819      -0.79107347      -0.49454825       0.54793315
Co      -0.09711987       3.68059666       7.52522836       0.21511823       1.33034465      -0.32865190
Co       0.06839971       5.71472066       9.47580747      -0.50583221       0.03213423      -1.10630584
Mn       1.94092089       3.78139663       9.12182523      -1.08264447       0.78195738       1.77095158
Fe       1.78858146       5.82465255       7.67777011      -0.43999819      -1.36078648      -0.67833231
Cr       3.67905371      -0.03760497       0.21162461      -0.12964506       0.84732380      -1.82251356
Ni       3.69609605       1.92764366       2.03758216      -0.21434064       0.02470529      -0.33351676
Mn       5.50880368      -0.04989673       1.78408469       0.12973361       0.28426322       2.17864287
Mn       5.50924932       1.83385179       0.12273659      -0.46600162       0.90418955      -1.60364455
Co       3.72969116       0.04265897       3.70525254      -0.70561548       0.37921208      -0.03243378
Ni       3.83634053       1.89408389       5.70178625      -0.96250142       0.03168383      -0.15891587
Cr       5.47137680       0.05558674       5.40787835       0.18740219       0.46950308       1.31621967
Cr       5.60683777       2.03011192       3.75732624      -1.14111462      -0.72096771      -0.82930174
Fe       3.73547717       0.03796229       7.40167591       0.27094409       1.38965252       0.78948640
Ni       3.65452159       2.07735330       9.38885841       0.32478988      -1.03762304      -0.60407044
Ni       5.40530563      -0.00413102       9.38895426       0.38392103       0.82217622      -0.74002187
Co       5.56740064       1.96325313       7.53968531      -0.96028952      -0.17023671      -0.19204377
Fe       3.64323578       3.79517577      -0.01277760       0.15867207       0.43794307       0.47408166
Cr       3.51408557       5.75690502       1.84676758       0.92506088      -1.72906397       0.44547346
Cr       5.53912056       3.88573611       1.94213432      -0.42795037       0.38162518      -0.64297194
Mn       5.52227121       5.72933254      -0.05141964       0.04069529      -0.28233958      -0.07714095
Ni       3.58979476       3.97522414       3.71477628       0.23066885      -0.63136980      -0.10061168
Mn       3.68767143       5.73711060       5.65727417      -0.13558226      -1.44619577      -0.43114647
Cr       5.44998628       3.71772635       5.48882630      -0.53726539       1.03257276       0.85674196
Co       5.43633578       5.69494445       3.89054952       0.40782439      -0.07502793      -0.93882256
Co       3.48754138       3.80050529       7.39034729       1.23923426      -0.27255379      -0.59599036
Mn       3.77717731       5.69067562       9.18687520      -1.13223211       0.51767239       1.19622739
Cr       5.42556561       3.86776469       9.40279164       0.28143277      -0.36936744      -0.18360539
Fe       5.47619600       5.64669893       7.48791500       1.50934506       0.34218228      -0.08641552
31
Lattice="7.043035946366766 0.08545067051528826 -0.01314372140945061 0.08545067051528826 7.103837906286365 0.07443939259675783 -0.01314372140945061 0.07443939259675783 6.971869772360839" Properties=species:S:1:pos:R:3:mace_force:R:3 mace_energy=-419.52059879558124 mace_virial="26.76644443915707 -5.466284457204899 1.886911093001534 -5.466284457204899 25.0054111180789 -6.199569802756131 1.886911093001534 -6.199569802756131 28.94890579082358" ood_type=vacancy parent=1355 vac_site=23 vac_Z=26 pbc="T T T"
Fe       0.02274291      -0.07712422       0.04362719      -0.66231889       0.90494739      -1.10089894
Co      -0.00228356       1.82141950       1.70643824      -0.05930371       0.19346521       0.73237910
Cr       1.73824720       0.03447804       1.75793336       0.26747793       0.36984851      -0.05843733
Mn       1.76715012       1.76804241       0.02646519      -0.30375986      -0.04510875      -1.06722246
Cr       0.00237162       0.08253000       3.50725640      -0.50175490       0.60951184      -0.29252340
Co       0.02572204       1.85196363       5.25361819      -0.18357684      -0.03803957      -0.44162964
Ni       1.74274675       0.04088736       5.19380999      -0.00070453       0.65076276       0.93407108
Co       1.76965958       1.86064756       3.48414287      -0.48546517       0.26734181       0.43223135
Cr      -0.01400030       3.57151691      -0.04918030       0.47346144      -0.12209124       0.62396971
Co       0.08098855       5.36246265       1.74109519      -0.53923053      -0.78605761       0.70101065
Cr       1.82005694       3.52500736       1.74404222      -0.55155965       0.39099410       0.65340037
Fe       1.82366520       5.36761997       0.06983705      -0.29438255       0.29449144      -0.83527718
Co       0.07787526       3.62528812       3.49793485      -0.47977410      -0.40131671       0.11431885
Ni      -0.00898732       5.37913387       5.24069436       0.43557586       0.01672225       0.27677006
Ni       1.81316817       3.64552077       5.24328773      -0.39781372       0.13508550      -0.19910305
Mn       1.81956192       5.50731851       3.60080934      -0.03558978      -1.83667069      -0.37206676
Co       3.52464249       0.06909747       0.04158846       0.28431258      -0.29908709      -0.82696506
Mn       3.51204751       1.80841698       1.77173615       0.75930300       0.87002170       0.25355574
Mn       5.26144539       0.14332032       1.79628933       0.97759044      -0.08728712      -0.30106732
Ni       5.33787211       1.90186410       0.02733054      -0.32542967      -0.62639390      -0.24870578
Mn       3.53468838       0.15550838       3.50356387      -0.35499712      -0.27835016       0.46140972
Cr       3.51877557       1.94026325       5.21349990       0.23395395      -0.57972157       0.09561363
Fe       5.24715263       0.11550258       5.15554884       0.41782905       0.65740577       0.87854775
Mn       3.52857414       3.67927536       0.06519051       0.59476350      -0.70734230      -0.04747418
Cr       3.63800454       5.37981055       1.79751711       0.00120701       0.28757957       0.22583112
Ni       5.30482959       3.64055604       1.80681869       0.84711484      -0.05987333      -0.15810890
Fe       5.38637754       5.39280350       0.01936093      -0.38343842       0.20424039       0.29479164
Ni       3.65942127       3.62028853       3.45244686      -0.80611839       0.23582046       0.69117503
Co       3.54632779       5.42365847       5.34780515       0.66114180       0.24761018      -0.52322387
Fe       5.26052818       3.66319642       5.23210948       0.44378874      -0.05327056      -0.95091013
Ni       5.33754971       5.45493839       3.52624408      -0.03230231      -0.41523831       0.05453821
31
Lattice="6.986682494811233 -0.04338742180085904 0.008856890044266572 -0.04338742180085904 7.074459876096489 -0.04484378659496057 0.008856890044266572 -0.04484378659496057 7.008164121745081" Properties=species:S:1:pos:R:3:mace_force:R:3 mace_energy=-421.0772718192915 mace_virial="36.13114095888744 3.52066083464908 -1.3549893917785094 3.52066083464908 35.54941315800601 3.024509178346476 -1.3549893917785094 3.024509178346476 33.59054548555715" ood_type=vacancy parent=958 vac_site=5 vac_Z=26 pbc="T T T"
Fe      -0.01178702       0.03640932      -0.07705059       0.84266405      -0.16587797       0.36614481
Cr       0.00115598       1.72037315       1.65124574       0.13395826       0.18484499       0.54340417
Co       1.81411336       0.01647337       1.79377732      -0.40212830      -1.00794671      -1.16762042
Fe       1.75965320       1.76504791      -0.03600826      -0.01981189      -0.28986955      -0.23644873
Mn       0.02551566       0.09439957       3.44609503       0.19600874      -0.28895226       0.39260988
Co       1.66655348      -0.05065601       5.20990024       0.84730034       1.11164639       0.62948028
Cr       1.77195072       1.76529598       3.44338467      -0.32241951       0.30303447       1.03155920
Mn      -0.10927261       3.49608898      -0.02502466       1.07762706       0.47076566      -0.73932150
Ni      -0.07802980       5.27759520       1.71073819       0.88210067       0.17683333       0.43276266
Ni       1.78226273       3.52248886       1.71595143      -0.60788878       0.63857415      -0.13034960
Co       1.69436358       5.29593661      -0.07358095      -0.11600191       0.01070478       1.21669216
Ni      -0.04272569       3.42046722       3.42374946       0.33506922       0.78164329       0.71357118
Mn       0.02322065       5.38082964       5.19953558      -0.63691747      -1.95468618      -0.38132162
Ni       1.90288617       3.53627533       5.25478011      -2.28498834      -0.67780447      -0.26786154
Cr       1.70823051       5.26561438       3.52905819      -0.09413964      -0.40847171      -1.38477255
Fe       3.48257600      -0.15773161      -0.14156389      -0.42178455       1.05538970       1.06176396
Ni       3.37310028       1.78247472       1.75437901       0.96258919      -0.67288241      -0.61992661
Mn       5.22454375      -0.07476539       1.75117419      -0.22165240       0.59671697      -0.24808560
Cr       5.25737938       1.67909293       0.04154299      -0.76135004       0.24623299      -0.87417148
Mn       3.48190995      -0.09431738       3.52618915      -0.75002392       0.70745968       0.22483175
Fe       3.43316480       1.75245676       5.26342507       0.64279866      -0.55159270       0.35374226
Ni       5.26688660      -0.06021673       5.21671097      -0.00028512       0.25488380       0.26122442
Mn       5.17807070       1.72202719       3.51084709       0.83038743      -0.04737215       0.52422744
Co       3.44015123       3.51198463      -0.04989427       0.81731518       0.36483604       0.89243538
Co       3.53035475       5.30745499       1.73896589      -1.06920378      -0.57691715      -0.94228017
Cr       5.17309147       3.47253584       1.78640165       0.26511217       0.41238480      -0.63889726
Co       5.29441205       5.34338360       0.04645795      -0.91166740      -0.70811340      -0.99234621
Mn       3.59653570       3.50602603       3.49015597      -1.98973603       0.00720256      -0.40692919
Cr       3.47363265       5.18969227       5.26962177       0.64543861       0.67275472      -0.03718025
Co       5.23564498       3.56520387       5.20237771       0.21560424      -0.50865912       0.54154655
Fe       5.11093793       5.28363765       3.50471198       1.91602526      -0.13676252      -0.11848337
31
Lattice="7.313559704244015 -0.1078138926799954 0.09937338483839231 -0.1078138926799954 7.187270739487812 0.021438951782533713 0.09937338483839231 0.021438951782533713 7.114402791158185" Properties=species:S:1:pos:R:3:mace_force:R:3 mace_energy=-420.6867240697802 mace_virial="17.104384969192054 5.107939115727429 -7.56915153650352 5.107939115727429 16.343026187772196 -0.4635961900098126 -7.56915153650352 -0.4635961900098126 21.195635417498156" ood_type=vacancy parent=2451 vac_site=25 vac_Z=24 pbc="T T T"
Ni      -0.07203890       0.10837109       0.02213714       0.89378286      -1.18171137      -0.84393407
Co       0.00092421       1.73738825       1.62345773       0.18303663       0.57221258       0.91866052
Co       1.84241022      -0.01631423       1.68151797      -0.07488495       0.32076198       1.00215076
Fe       1.88813904       1.68130521      -0.05999844      -2.26129396       0.31737682       1.97920048
Co      -0.06230779       0.03329950       3.48834319       1.56717145       0.58459730       0.40783338
Ni       0.15324937       1.86209914       5.45015648      -1.23164745      -1.24893545      -1.04723309
Ni       1.92627394       0.15504523       5.39305683      -0.89324487      -3.21178505       0.06112874
Fe       1.82215936       1.62696747       3.76761672      -0.65637828       0.90084112      -2.70306331
Mn      -0.02744955       3.59239681      -0.16991102      -2.22307661      -0.97245221       2.12581774
Mn       0.12381210       5.46662960       1.74902806      -1.05346189       0.47921020       0.60118510
Mn       1.69412708       3.61460988       1.66467348       2.73499367      -1.40662099       0.63398708
Ni       1.69669096       5.22968346       0.00078100       1.10992326       1.95503885      -0.39844741
Mn       0.07557549       3.59643294       3.48571756      -0.31401958      -0.28508719       0.95014596
Fe       0.11327040       5.36232449       5.28429967      -0.34353661       1.94011483      -0.49827962
Fe       1.68635650       3.63348284       5.46834534       2.48774440      -0.08617495      -1.68244639
Ni       1.91936595       5.24809195       3.58889829      -0.18854407       0.95138384      -0.23812188
Mn       3.66273520       0.00461831       0.13871954      -0.55017487      -2.75877591      -0.70206305
Co       3.68009368       1.58391936       1.79213794      -0.63411568       1.68197911       1.54718863
Cr       5.58497800      -0.13211172       1.89715099      -0.31230843       0.39840806      -0.18106712
Co       5.32232320       1.49032209       0.13794904       2.03163508       1.64742163      -0.83648905
Fe       3.70697056       0.03327595       3.49022393      -0.07414714      -0.61565756       0.08460128
Mn       3.49134114       1.80520718       5.43344337       3.60925343      -0.09981755      -1.04814371
Cr       5.62144143      -0.14198967       5.41415962      -0.13200371       0.62540206      -0.02415462
Co       5.62530130       1.87736519       3.57486311      -0.50286363      -1.89019857       0.06135383
Cr       3.69411846       3.33222012       0.07042618       0.03255633       1.65858445       0.24161368
Fe       5.45988239       3.47480876       1.91402547       0.01282601      -0.53562826      -0.14724159
Mn       5.50365593       5.22143850       0.22616211      -1.08417993       0.84240030      -1.05009453
Fe       3.72844030       3.44219330       3.72003065      -0.92472785       0.53338192      -1.32368201
Cr       3.73936537       5.39313905       5.30688852      -0.55981094      -0.20239986       0.75301443
Cr       5.56506666       3.43481756       5.26633652      -0.02443581       0.49470270       0.98879320
Ni       5.55711227       5.41379483       3.55186034      -0.62406688      -1.40857284       0.36778665
47
Lattice="6.96033548494189 0.02376899323983739 0.0036232613428946433 0.02376899323983739 7.087037790589192 -0.035974627971102006 0.005434892014341965 -0.05396194195665301 10.660850983785256" Properties=species:S:1:pos:R:3:mace_force:R:3 mace_energy=-634.4599133310987 mace_virial="44.342033016986335 -0.45759072513449306 -0.40245314095112805 -0.45759072513449306 45.75422805795674 5.0965368368035175 -0.40245314095112805 5.0965368368035175 44.299192942099396" ood_type=vacancy parent=1999 vac_site=21 vac_Z=25 pbc="T T T"
Fe      -0.08143911      -0.02012027      -0.04643775       0.68554856      -0.11359538      -0.89215361
Mn      -0.08681311       1.78272644       1.80678519       0.87272795      -0.73939487      -0.59168968
Fe       1.55490833      -0.04719879       1.82040772       2.36214552       0.39537964      -1.14482800
Co       1.74117875       1.83584211       0.08632086      -0.66909385      -0.47682264      -1.02449305
Ni       0.14112113      -0.07099923       3.51903422      -1.75030184       0.10897357       1.57539762
Co      -0.07625202       1.70206760       5.32347025       0.46264923      -0.35090526      -0.38351668
Co       1.87424585      -0.03014844       5.39038569      -1.79348616      -0.49495072      -0.53830274
Cr       1.71410511       1.82571694       3.57109424       0.24496073      -0.56873007      -0.12537707
Fe      -0.03498638       0.07436699       7.06910638      -0.68279224      -1.89117317       0.13072810
Co       0.15914979       1.74003829       8.81706043      -1.61636126      -0.53464721       1.09615517
Fe       1.67086982      -0.04472355       8.81519043       0.51615880      -0.94100060       1.45382239
Mn       1.71173867       1.60707249       7.12081033       1.31821521       1.87347544      -1.19498637
Mn       0.05228858       3.62173478      -0.03045243      -1.03874731      -1.00954633      -0.91899315
Mn       0.03576010       5.34745489       1.64233797      -1.26557579      -0.83849168       1.84952046
Fe       1.73421672       3.58131124       1.74484167       1.06790907      -0.30613295       0.67874203
Mn       1.81903366       5.19299672      -0.11248262      -0.26729378       2.08093751      -0.48342911
Mn      -0.06246646       3.42544555       3.49680680       0.30886488       1.70232631       0.73944148
Cr      -0.02517956       5.19719568       5.30178644       0.19902605       0.63891530      -0.06652000
Cr       1.69557062       3.53972727       5.34947479       0.86591825       0.08238870      -0.26932395
Ni       1.84780706       5.33677076       3.50469647      -0.22061096      -0.46737860       0.21983508
Ni       0.02246728       3.37090725       7.07385385      -0.34209824       0.93864761       0.37382968
Ni       1.68548153       3.43101822       8.82992235       0.80179736       0.39427056       0.15490741
Cr       1.78544580       5.19589579       7.17963509      -1.05399255       0.67441248      -0.10253920
Co       3.38351722       0.06826928       0.01796696      -0.04479985      -1.12167406      -0.61956575
Cr       3.41045658       1.62909655       1.65736106       0.47083875       1.30459738       0.99108258
Fe       5.21903838       0.01236656       1.82743579      -0.09944781      -0.12776548       0.34886257
Mn       5.27901695       1.74419714      -0.07708957      -0.58809648       0.60473738       0.09018928
Ni       3.50512286       0.01397466       3.63164734      -0.08233760      -0.07236162      -0.75282144
Ni       3.31175212       1.74414756       5.31521317       1.83698567       0.44865314       0.55312978
Co       5.24671834       0.00466911       5.35038300       0.22766565       0.57026168      -0.33931153
Cr       5.15549830       1.87534312       3.51948809      -0.18234015      -1.12826856       0.93315524
Ni       3.53155224      -0.08878421       7.13614709      -0.10208071       0.67367030       0.19317324
Cr       3.54799661       1.71805678       8.91474581      -0.93797461       0.16918419       0.18459216
Fe       5.07657774      -0.12360291       8.87113614       1.13252887      -0.27420609      -0.07188050
Fe       5.23951547       1.80852198       7.13790712      -0.43129193      -0.68267925      -0.47501963
Ni       3.48611288       3.65079846      -0.05798660      -0.48027224      -2.37704635       0.74612904
Fe       3.66301454       5.31805454       1.70664417      -1.27618520       0.48404533       1.35673350
Co       5.24591488       3.53679295       1.73633836      -0.58769701       0.18998582      -0.29328018
Cr       5.08954302       5.27296557      -0.01234246       1.54741538       1.20833778      -0.33659258
Co       3.50356921       3.54512224       3.47820584      -0.14853081      -0.02424181       0.55366405
Mn       3.63058470       5.40900284       5.38521976      -1.06721446      -1.87226654      -0.67989177
Ni       5.24364131       3.48677854       5.41805751      -0.65534931      -0.07443939      -0.71757890
Co       5.19923358       5.25748400       3.58913990       0.53011575       0.47070468      -0.64227281
Ni       3.50534511       3.50556114       7.17899432      -0.12260895      -0.37598204      -0.79862353
Co       3.49115195       5.20267309       8.88677817       0.01671324       0.77034167      -0.99404455
Cr       5.20526642       3.48608387       8.93836179       1.17110939       0.70294244      -0.85177258
Ni       5.22425292       5.23448100       7.04355445       0.86728679       0.37651172       1.08571752
31
Lattice="6.918743588315351 0.012145153179626673 0.016461343774624545 0.012145153179626673 6.99600510465938 0.03807796272432956 0.016461343774624545 0.03807796272432956 6.875863047326752" Properties=species:S:1:pos:R:3:mace_force:R:3 mace_energy=-419.70925888835404 mace_virial="52.53101288732408 -0.5589644561679123 0.025140459583113495 -0.5589644561679123 50.975312242332386 -3.258363215768296 0.025140459583113495 -3.258363215768296 51.79486784160904" ood_type=vacancy parent=3679 vac_site=23 vac_Z=26 pbc="T T T"
Co      -0.01593128      -0.00116236       0.00547817       0.31143114      -0.25190078       0.23215593
Ni      -0.04837943       1.74949445       1.67760920       0.66813766       0.17574733       0.84427482
Cr       1.75026193      -0.03982577       1.67410300      -0.98270560       0.63123404       0.07688373
Mn       1.73781690       1.77912881      -0.06988329       0.01462473      -0.04939026       1.11096181
Fe       0.00815059       0.05306786       3.48078717      -0.03899500       0.27743080      -0.94583755
Cr       0.00338942       1.82359079       5.29868365      -0.29041161      -0.34644830      -1.45100955
Ni       1.79602323      -0.03716721       5.33568829      -0.54746855       0.78167141      -2.09709149
Fe       1.62108877       1.72132490       3.41206986       0.53282477       0.37757701       0.28041396
Fe       0.04888912       3.51711218       0.03308983      -0.75191355      -0.04499679      -0.19977036
Cr      -0.07758827       5.15563861       1.75678066       0.68210827       1.11111719      -0.40534680
Cr       1.73706921       3.53659872       1.77395747       0.20544823      -0.56559542      -0.11005328
Co       1.65942065       5.21144919      -0.07950302       1.25303620      -0.54850972       2.15791431
Co      -0.00506732       3.49326813       3.53357185      -0.41607961      -0.62193941      -0.30129710
Ni       0.12083323       5.32708361       5.21862556      -1.83836074      -0.38739165      -0.65586578
Ni       1.65337207       3.59877417       5.12785162       1.51610221      -0.95862205       0.14527538
Mn       1.64942536       5.31611800       3.41562047       0.26106686      -0.43345001       0.48756836
Cr       3.43425941      -0.04902247       0.14142884       0.95446407       0.18289528      -0.84934171
Fe       3.51487474       1.80979764       1.80406611       0.02437529      -0.84960529       0.87847704
Co       5.32706998       0.03367237       1.69752928      -1.17603559      -0.18405105       1.17581197
Ni       5.15878891       1.72520476       0.09159395       0.12020444      -0.35728948      -0.87766895
Co       3.47912110       0.05337545       3.47603886       0.08097414      -0.03519282      -0.99235149
Fe       3.40281118       1.62329001       5.04851251       1.25194231       1.66874340       0.25249159
Mn       5.28817753       0.03105103       5.09529305      -0.74592096       0.79131105       0.51004755
Mn       3.60378565       3.42288752      -0.00566677      -1.75412547       1.09038474      -0.07007398
Fe       3.42078023       5.27980429       1.85777679       0.83872269      -0.60086949      -0.55415120
Cr       5.22564568       3.46839683       1.79943831      -0.13120328      -0.38770081       0.34535938
Mn       5.23170882       5.26937095       0.03554105      -0.22853805      -0.10254513       0.29748216
Ni       3.51406567       3.49548561       3.51029545      -0.65465034      -0.83499647      -0.12084573
Mn       3.47878160       5.24630392       5.06461644      -0.37996866       0.20887415       1.00907929
Co       5.16528353       3.50698794       5.20758776       0.86815434      -0.27324802      -0.51622469
Cr       5.21112479       5.22134742       3.47095503       0.35275967       0.53675656       0.34273234
31
Lattice="7.38730387010632 -0.13810604832990986 0.03692049396007018 -0.13810604832990986 7.4073470608013805 0.02286519284670242 0.03692049396007018 0.02286519284670242 7.449234776483494" Properties=species:S:1:pos:R:3:mace_force:R:3 mace_energy=-418.0441321136585 mace_virial="-10.658647163292255 6.624776948275703 -2.65135495953042 6.624776948275703 -10.401133141870682 0.581257603216713 -2.65135495953042 0.581257603216713 -8.28774861834396" ood_type=vacancy parent=3413 vac_site=7 vac_Z=25 pbc="T T T"
Fe       0.00040455      -0.07760798       0.05626339      -0.59975123       0.96862987      -0.19707901
Co      -0.01948662       1.85209957       1.95936583      -0.31323501       0.51975104      -0.51886514
Cr       1.81291907      -0.05820610       1.85891422       0.57122030       0.20920238       0.53029857
Mn       1.90844222       1.98788046       0.01526352      -0.77745959      -0.36314030       0.82266258
Mn      -0.07186549      -0.08931974       3.63977285       0.83725978       0.90216625       0.78053671
Fe      -0.02841664       1.82627360       5.53911624       0.02278781       0.31919513       0.87079502
Cr       1.91082763      -0.00917574       5.80439801      -1.13024731       0.69529870      -1.53580991
Fe      -0.17423818       3.76673046      -0.00505718       0.46334772      -0.56553491      -0.44234617
Cr      -0.07757294       5.58673951       1.88271007       0.38523292      -0.85676809       0.17144586
Ni       1.72919233       3.75015838       2.00344581      -0.15282514      -0.44792571      -0.50253060
Cr       1.89580261       5.48195938      -0.12369333      -1.15158531      -0.34334334       2.03505118
Fe       0.09658243       3.64756919       4.02528362      -0.87449981       0.13497676      -1.51005090
Ni      -0.04664655       5.52429132       5.64179181      -0.61658290       0.17642751      -0.07400553
Mn       1.99627050       3.81908181       5.64883485       0.01341466      -1.00840114      -0.49211280
Co       1.81911230       5.36153195       3.83622440       0.11527642       1.05930160      -0.40152509
Co       3.56371218       0.07783634       0.18092857       1.32379356      -1.06004908      -1.39341031
Ni       3.63712510       1.57844063       1.76318818       0.83815733       1.67056494       1.49601508
Co       5.43868742      -0.11115665       1.84845612       0.26688395       1.11598114      -0.07603313
Ni       5.45170827       1.78267102      -0.10759103       0.17402123       0.18183008       0.58370348
Ni       3.83666592      -0.20851863       3.79767197      -0.53581588       1.00324154      -1.20458404
Co       3.62087058       1.63123971       5.62258811       0.71264815       0.87832776      -0.11784053
Cr       5.47288231      -0.00017951       5.58670911       0.63299978      -0.64844846       0.64089353
Ni       5.52264673       1.82724414       3.74690531       0.10677139      -0.50962469       0.00474917
Ni       3.64283004       3.68608355       0.03473348       0.46500277      -0.37489229      -0.05775851
Cr       3.65359329       5.46889206       1.74984206      -1.25831449       0.36346713       0.87775001
Mn       5.43463726       3.66045849       1.86847963       0.12356991      -2.77628579      -0.71883688
Fe       5.44697936       5.51785501       0.18261329      -0.18184550       0.42547005      -1.46673891
Cr       3.83223596       3.57024379       3.76000536      -1.80895031      -0.10657212      -0.42910062
Co       3.46674264       5.84414154       5.65317776       1.92274869      -1.95893328      -0.31827934
Fe       5.25058019       3.78209788       5.60537778       0.65694665      -0.94337014       1.17336629
Mn       5.42543842       5.35633932       3.66179091      -0.23097054       1.33945746       1.46963994
