32
Lattice="7.1755167422114265 -0.04275568800965363 0.3709498908443011 -0.04275568800965363 7.794779202470509 0.26514223091068134 0.3709498908443011 0.26514223091068134 7.715210246369307" Properties=species:S:1:pos:R:3:initial_magmoms:R:1:mace_force:R:3 mace_energy=-427.05284094348434 mace_virial="5.5979820434503065 5.984061915363387 -18.188123639656634 5.984061915363387 3.4838635427299804 -6.993304778482056 -18.188123639656634 -6.993304778482056 5.10391817309701" pbc="T T T"
Ni       0.08801519      -0.13409973       0.01277872       0.60000000      -0.28290680       0.28570272      -0.30965734
Ni       0.10438342       2.06206254       2.27303059       0.60000000       0.12085436       0.21932308      -0.82023495
Mn       1.54630928      -0.27535989       2.08378829       0.60000000       4.36453896       4.35158611      -2.33439322
Ni       2.18256968       2.13289183       0.15177773       0.60000000      -4.76927803       1.57038004       0.45404639
Cr       0.17996205       0.03987731       3.72009254       0.60000000      -1.42181235       1.43634838       2.11034946
Fe       0.29163286       1.95089574       5.74705175       0.60000000      -1.13659801       0.75217486       0.71917591
Mn       2.13916949       0.43696230       5.72359808       0.60000000       0.07351751      -1.00258892       1.44657564
Fe       2.09178061       2.24742186       3.95425564       0.60000000      -1.11793240      -1.57527190      -0.45715518
Mn       0.01693622       3.94509230       0.03107340       0.60000000      -0.47841855      -1.22074828       0.24234874
Ni       0.24080753       6.00601621       2.29563782       0.60000000      -3.72102129      -4.07966923      -0.58531085
Co       1.90853044       4.11982188       1.97193108       0.60000000      -0.79462277      -0.91738211       0.89473371
Cr       1.79818513       5.68774967       0.12022304       0.60000000      -1.97048705       1.07124231       2.44422533
Cr       0.09807149       3.78121350       4.10041766       0.60000000       0.58031960       1.39696665      -0.58178994
Ni       0.46102972       6.22132415       5.85536748       0.60000000      -0.96413740      -0.73689466       1.26382746
Co       2.15887101       3.89562385       6.01621128       0.60000000      -0.73751934      -0.15912903      -0.04142544
Ni       1.96750031       6.13033883       4.12738841       0.60000000       0.77798558      -1.16417533       0.47734077
Cr       3.42818155       0.42500135       0.37127994       0.60000000       0.32564919      -5.07407096       0.07278716
Cr       3.65903631       2.08841861       1.88327514       0.60000000      -0.36446478      -0.33348316       4.57993334
Co       5.47928791       0.09801719       2.19793644       0.60000000       0.49924961      -0.03625416      -0.50794197
Co       4.90237785       2.05657991       0.07460661       0.60000000       6.01156994      -0.42500952       0.83490525
Mn       3.95324541       0.16721550       4.05979402       0.60000000      -2.56482994      -0.44785313      -2.85378537
Co       4.01479264       2.37472761       6.25024119       0.60000000      -1.67265097      -0.73908341      -4.79634064
Mn       5.31470960      -0.07299750       5.98167208       0.60000000       1.71032097       1.70750279       3.37778369
Fe       5.29692651       2.04760243       4.26504526       0.60000000       1.11701904       0.79217215      -0.28972691
Fe       3.84801700       3.96792646       0.45510320       0.60000000      -2.72553933      -0.44161191      -0.54113969
Cr       3.74249196       5.66718351       2.39177671       0.60000000      -0.63670242       2.54664086       0.23589376
Fe       5.18228583       3.88982915       2.56590257       0.60000000       3.20468659      -0.80374212      -0.72865335
Mn       5.22657355       5.59162578       0.63395673       0.60000000       2.49277119       3.55599452      -0.95101328
Mn       3.50378653       3.99487068       4.06988200       0.60000000      -0.15834683       1.30781295       1.70049221
Cr       3.43980273       5.94847425       6.44384680       0.60000000       2.25739781       0.28934162      -2.98355888
Fe       5.34934053       4.16210563       6.01506557       0.60000000       1.02240471       0.76294691       0.12843815
Co       5.36092729       6.23589216       4.71216075       0.60000000       0.95898319      -2.88916812      -2.20072994
32
Lattice="6.652635771506067 -0.08644909357904361 0.2945640404080023 -0.08644909357904361 6.780081822480017 0.098200058710896 0.2945640404080023 0.098200058710896 6.582928003284388" Properties=species:S:1:pos:R:3:initial_magmoms:R:1:mace_force:R:3 mace_energy=-413.0776999654462 mace_virial="156.81122224367738 7.886176925419056 -42.380760099569045 7.886176925419056 146.5406758545094 -9.254637024169762 -42.380760099569045 -9.254637024169762 158.57256158644" pbc="T T T"
Ni      -0.01797381      -0.03667217       0.12839237       0.60000000       4.48117940      -0.01733124      -8.54417770
Fe      -0.08987395       1.52333224       1.56474509       0.60000000       2.13642685       5.57734822       2.10675569
Fe       1.81966961       0.04703058       1.44201217       0.60000000      -1.43889611       0.04812647       0.72388672
Mn       1.66435935       1.70062751       0.14106968       0.60000000      -0.07192795       2.09775395      -1.58220614
Cr       0.01175288       0.05796311       3.25773604       0.60000000       2.31464877      -0.32508374      -1.25497079
Co       0.39093654       1.58248474       4.92581158       0.60000000      -2.68150511       1.75755286       2.01785921
Mn       1.92456784      -0.08381219       5.12728989       0.60000000       0.35592077       0.73423393      -1.06450433
Co       1.65159730       1.62725938       3.30133846       0.60000000       0.68513163       1.44375318      -1.04554767
Cr      -0.13989680       3.36535151      -0.02392562       0.60000000       0.75808397      -2.26012874      -0.05302556
Fe       0.00093400       5.09571960       1.56005893       0.60000000      -0.58663013      -1.21506598       2.80899996
Ni       1.62285225       3.49922638       1.80503437       0.60000000      -0.01547751      -5.02603003       1.61795748
Cr       1.63319673       4.80654500       0.20432636       0.60000000      -0.91783058       3.38478166      -1.81663388
Fe       0.21076948       3.56691216       3.55573125       0.60000000      -2.42564030      -4.56380336      -3.92888803
Co       0.41735478       4.91072327       4.91425947       0.60000000      -2.43371970       6.34993867       3.16221915
Mn       1.97524551       3.53995668       4.98049018       0.60000000       0.52333328      -3.56433500      -0.00334847
Ni       1.73369334       5.26936360       3.07589623       0.60000000      -4.59087625      -1.97513984       5.49497667
Cr       3.42851479      -0.04011736       0.04934035       0.60000000      -2.70218669      -1.07874246       0.05537382
Ni       3.43371200       1.60059780       1.89176940       0.60000000      -0.89834059       2.78999765      -1.45428055
Fe       5.24823865      -0.08945596       1.70261119       0.60000000      -8.35149438      -1.33273202       7.85571486
Co       4.78422350       1.44229810       0.26557337       0.60000000       3.76789709       4.15151576      -2.67109179
Mn       3.15406146       0.06334064       3.30804320       0.60000000       4.41710556       0.33490007       3.02492448
Mn       3.64776158       1.72920930       5.14017385       0.60000000      -1.11563521      -0.11170235      -0.36805953
Co       5.31760295      -0.20734673       5.09687868       0.60000000       0.07305242       3.28622046       0.93901878
Cr       4.94324860       1.82634617       3.48132057       0.60000000       3.08484292      -1.74303321       2.11732660
Ni       3.30917029       3.42822745       0.28363650       0.60000000      -0.93888639      -3.82968670       2.63278633
Mn       3.30755748       5.14995476       1.91847005       0.60000000       4.44491443      -1.34070401      -1.77225576
Ni       5.07731274       3.45247737       1.92353469       0.60000000      -0.16711278      -1.48511797       0.25304833
Cr       4.81333612       5.08955842       0.34486015       0.60000000       2.26190777       0.19046684       0.31883442
Mn       3.47119906       3.37005221       3.44969655       0.60000000      -2.10241987       0.84713020      -0.38740320
Fe       3.52571765       5.00414277       5.21532817       0.60000000      -2.86699445       3.89616472      -1.49870237
Co       5.06921630       3.71357073       5.43584525       0.60000000       4.46378921      -6.59026488      -3.51050357
Cr       5.02484901       5.06239014       3.73291104       0.60000000       0.53733991      -0.43098313      -4.17408317
32
Lattice="7.016764605889435 0.2581384888173543 0.23509438743244693 0.2581384888173543 6.92353160356873 0.18240809130454094 0.23509438743244693 0.18240809130454094 6.675309060610983" Properties=species:S:1:pos:R:3:initial_magmoms:R:1:mace_force:R:3 mace_energy=-412.3089636847364 mace_virial="124.90175225156064 -31.04797382368933 -28.617065153164482 -31.04797382368933 120.79264043301785 -22.978974634560945 -28.617065153164482 -22.978974634560945 112.95559266923487" pbc="T T T"
Cr       0.04009200      -0.09998074       0.40931788       0.60000000      -3.59746916      -2.95559300      -9.57663850
Co       0.34033713       1.23027708       1.55417397       0.60000000     -15.33946128      15.10285965       5.99198262
Ni       1.87385007       0.50911855       1.37953737       0.60000000      14.30795508     -10.21243437       4.66079788
Co       1.74237724       2.00314211      -0.01515724       0.60000000       1.32942014       0.41316653      -1.24515176
Mn       0.12985353       0.00494001       3.45340432       0.60000000       2.19359137       1.44597072      -4.70151321
Mn       0.05139360       1.87164901       4.80127898       0.60000000       3.08474152      -0.31229683       1.31475661
Ni       2.09892441       0.30566648       5.05897643       0.60000000      -2.38900166       0.73071891       0.23776618
Fe       1.94264770       1.89133951       3.37837164       0.60000000      -1.03814191      -2.30566510       3.21607084
Fe       0.15613141       3.52499981       0.07934538       0.60000000      -1.50486148      -0.28514487       1.12557936
Ni       0.14990124       5.16817656       1.72660283       0.60000000       1.13250551      -1.72652642       0.89264589
Cr       2.02031509       3.59853133       2.15886747       0.60000000      -0.20998357       1.90275947      -4.65505692
Fe       1.91793582       5.27018623       0.08712520       0.60000000      -0.73192936      -0.29239726       1.15057623
Cr       0.26405895       3.47632622       3.28077677       0.60000000      -1.18399116      -0.34477178       1.74770098
Fe       0.39777050       5.60372813       4.99413102       0.60000000       2.98243161      -6.49962616       3.70269288
Mn       1.94731267       3.65627104       5.20013135       0.60000000      -0.99285152       0.60851604      -2.42557664
Mn       2.28941400       5.23661829       3.50896554       0.60000000      -5.71194047       3.74855543      -0.89140900
Mn       3.37075041      -0.02263697       0.03490132       0.60000000       3.45405586       2.01411753      -1.78328282
Fe       3.43796839       1.98083488       2.01126136       0.60000000       5.25326574       0.14477617      -3.15131260
Co       5.22993413       0.11538993       2.07025075       0.60000000       1.11072079       1.93883472      -2.59516989
Mn       5.28684713       2.17706439      -0.28065161       0.60000000       1.43088794      -3.15026906       6.07295930
Cr       3.59355101       0.04088165       3.35912072       0.60000000      -0.69030265       2.78484790       0.70399525
Co       3.88404869       2.17889500       5.13534888       0.60000000      -4.02213410      -4.32362171       0.33229421
Co       5.59589847       0.13286291       5.22506833       0.60000000      -5.09157416       2.95644581       1.19546452
Cr       5.41346742       1.71797040       3.71050530       0.60000000      -0.34135401       2.56197147      -3.11354108
Fe       3.51704329       3.66089534       0.07235552       0.60000000      -0.10259091      -0.07580806       3.21516160
Ni       3.78654579       5.46870695       1.91842865       0.60000000      -0.62008821      -1.53147001      -1.27132951
Cr       5.36394627       3.80117003       1.96882971       0.60000000      -0.31074876      -3.65845009      -0.92885622
Ni       5.37986791       5.39001754       0.29539342       0.60000000       0.69763269      -0.96490329       0.23461112
Mn       3.69274740       3.83400615       3.84267382       0.60000000       1.79904707      -4.73275321      -5.64384936
Ni       3.78703454       5.43500880       5.09582063       0.60000000       0.44986052       4.43698069       4.36319376
Cr       5.33559300       3.98471994       5.15551580       0.60000000       5.44739567      -0.46942637       1.53681416
Co       5.62943442       5.24118753       3.53794823       0.60000000      -0.79508714       3.05063656       0.28762411
32
Lattice="6.948152547575422 -0.0028086636848533033 0.08707078815860549 -0.0028086636848533033 7.463439949979725 0.12273685080206818 0.08707078815860549 0.12273685080206818 7.347723603723705" Properties=species:S:1:pos:R:3:initial_magmoms:R:1:mace_force:R:3 mace_energy=-436.7141417567883 mace_virial="18.025787555065346 -0.8471766904550705 -6.867333278659634 -0.8471766904550705 21.295356210552953 -3.6858909070975026 -6.867333278659634 -3.6858909070975026 25.15006470261504" pbc="T T T"
Cr      -0.10331885      -0.13465289      -0.07485207       0.60000000       0.54215815       1.03951752       0.42863617
Fe      -0.03889286       2.02747940       1.97942739       0.60000000       0.53734432      -1.78389494      -0.65287820
Co       1.86221937       0.00007796       1.78245371       0.60000000      -0.47544563       1.24458339       1.32750785
Cr       1.78021574       1.84594764       0.01435248       0.60000000      -0.12394741      -0.50410792       0.38330391
Ni      -0.12125247       0.13897396       3.75234282       0.60000000       0.68087348      -0.61978389      -1.74796305
Fe       0.15565053       1.86144219       5.41351884       0.60000000      -1.22501767       1.24474925       1.38893034
Mn       1.79926575      -0.00552873       5.35735573       0.60000000       0.91037179       1.21577359       1.97365391
Ni       1.66824464       1.94204177       3.79350801       0.60000000       1.44204664      -0.29375772      -0.99460117
Ni       0.05588974       3.80971474       0.10764534       0.60000000       0.14300410       0.04389276      -0.34495058
Co      -0.11778541       5.67636368       1.96996722       0.60000000       0.80789757       0.67433589       0.28791354
Mn       1.77185343       3.73331931       1.96718059       0.60000000       0.00291304      -0.31425284       0.09647739
Fe       1.83228544       5.79407295       0.44463771       0.60000000      -0.66803858      -0.96882892      -2.25782838
Cr       0.07116405       3.87770325       3.68129083       0.60000000      -0.26560211       0.08800170       1.60712433
Ni       0.04267892       5.82111560       5.50334346       0.60000000      -0.35363307      -1.04413911       0.42401143
Ni       1.83732276       3.70095701       5.69243774       0.60000000      -0.41300054       0.54882803      -0.54645622
Mn       1.80893866       5.76968269       3.80960048       0.60000000      -0.81801970      -1.47269978      -1.44961667
Co       3.71935402      -0.04456084       0.16105354       0.60000000      -3.37813858       0.21300498      -2.46789791
Ni       3.63785702       1.93086428       1.84592061       0.60000000      -2.38143834       0.28737482       1.82230521
Mn       5.01335555       0.08013073       1.79171066       0.60000000       3.15344239      -0.82301898       2.61752305
Cr       5.02792186       1.85756546       0.19044294       0.60000000       2.60582077       1.26760212      -1.86009812
Fe       3.71474391      -0.08805756       3.69543751       0.60000000      -1.96099075       1.33332763      -0.10351673
Co       3.69954567       1.93888265       5.59166595       0.60000000      -1.49549003       0.04322056       0.45955257
Fe       5.21205386       0.13935941       5.46075088       0.60000000       0.10717814      -1.21568151       1.48165383
Mn       5.14161312       1.88628053       3.84831230       0.60000000       0.78816264       1.06077259      -1.24208368
Fe       3.44312404       3.71373730       0.14153840       0.60000000      -0.58719287       0.21244687       0.26510845
Co       3.39682790       5.49085551       2.00319401       0.60000000       1.09078739       0.36609165       0.37431936
Cr       5.38488222       3.79341987       2.01488120       0.60000000      -1.40467392       0.08400141      -0.41102679
Mn       5.14981792       5.67797687       0.23062760       0.60000000       0.74926765      -1.28455123       0.01570640
Cr       3.54767981       3.69665672       3.84540526       0.60000000      -0.34076438       0.07987927      -0.41891427
Cr       3.56541091       5.55371544       5.63098029       0.60000000      -0.78225375       1.08945804       0.84499786
Mn       5.26750230       3.99576823       5.86151453       0.60000000       1.54146154      -1.51726949      -1.74177307
Co       5.09889836       5.67247021       3.70228083       0.60000000       1.57091770      -0.29487574       0.44087927
32
Lattice="7.938674697606428 0.38360227937412067 0.11557415670877763 0.38360227937412067 7.903259499762644 0.16059619092113736 0.11557415670877763 0.16059619092113736 7.862691742071688" Properties=species:S:1:pos:R:3:initial_magmoms:R:1:mace_force:R:3 mace_energy=-429.18846778024204 mace_virial="-35.50810109103042 -15.15628524484325 -6.656751368147172 -15.15628524484325 -33.14483928992713 -7.4793590986395495 -6.656751368147172 -7.4793590986395495 -39.800328677588865" pbc="T T T"
Ni       0.29245479      -0.14298977      -0.15560597       0.60000000      -1.40114216       1.48770818       0.34243279
Ni       0.17348175       1.90430955       1.81529300       0.60000000       0.21365973       0.00475994       0.03692525
Co       2.16273480       0.11864569       1.74054341       0.60000000      -1.12150002       0.18367288       0.26586258
Co       2.26918433       2.08561755       0.08027274       0.60000000      -0.27749374      -0.09170593       0.15628047
Fe      -0.01656321      -0.22370981       3.95707743       0.60000000       0.77074775       0.44451522      -0.68477965
Ni       0.20257200       1.92951082       5.76983173       0.60000000      -0.09154807      -0.17985692       0.18353285
Mn       2.11606992       0.12657136       5.87704126       0.60000000      -0.35062290       0.05923050       0.57940075
Mn       2.24819156       2.20042036       4.21265251       0.60000000      -0.69953462      -0.48030371      -1.19895735
Co       0.50394631       3.87994082       0.20829466       0.60000000      -0.41860448       0.04147502       0.13694748
Co       0.26171805       5.93320399       1.85075263       0.60000000       0.12015129      -0.26791956       0.18680816
Mn       2.51687758       4.09933570       2.07820756       0.60000000      -1.94097112       0.81674766      -0.48870403
Ni       1.99715362       6.05602889       0.10757505       0.60000000       1.48398362      -1.45553591       0.06946002
Co       0.29307619       3.91497575       3.99644493       0.60000000      -0.20001479       0.44429867      -0.32659852
Mn       0.22705922       5.99255853       5.98679183       0.60000000       1.67263919      -0.53524609       0.86998751
Cr       2.43400600       4.03668664       5.86975517       0.60000000      -1.00419770       0.85667870       1.40426009
Fe       2.62111265       5.91306174       4.06664164       0.60000000      -1.22915592       1.11379101      -0.16839555
Co       3.83340996       0.18067085       0.15989184       0.60000000       0.57552198       0.75181284      -0.95856795
Cr       4.14937377       2.53836282       2.42590406       0.60000000       0.17846471      -2.13595961      -1.49441830
Mn       5.82429115       0.08052252       2.38256016       0.60000000       2.82433406       0.41962913      -3.33378916
Cr       6.01696568       2.34238026       0.09750955       0.60000000       0.08212203      -0.78779497       0.50703838
Mn       3.96047437       0.04607797       3.66564058       0.60000000      -2.26315364       0.18907779       2.13829302
Ni       4.23206923       2.30183702       5.78448302       0.60000000       0.28270744      -0.84317801       0.75066628
Fe       6.09618461       0.33409371       5.87831319       0.60000000      -0.23185103       0.61696462       0.32182503
Cr       6.13328160       2.17334863       3.91866215       0.60000000       0.97613874       0.67526378       0.53078246
Ni       4.07253796       4.13449772       0.17752456       0.60000000       0.36830372      -0.22328593      -0.60521581
Cr       4.38685925       6.19182197       1.76282761       0.60000000      -1.19920936      -0.43837256       0.96754092
Fe       5.84682223       4.37975114       2.16288715       0.60000000       1.95360193      -0.35253786      -0.47144885
Fe       6.19726233       6.03708864       0.13361277       0.60000000       0.87650998       0.44781277       0.50933008
Mn       4.27980055       4.10027477       4.14161347       0.60000000       1.12594561       1.05348781       0.92430946
Cr       4.57078207       6.35989630       6.18424745       0.60000000      -0.58716857      -0.44032143       0.00240882
Cr       6.47453787       4.41993266       6.17906349       0.60000000      -0.28060827      -0.94215578      -0.51723939
Fe       6.44989748       6.16819856       4.22390216       0.60000000      -0.20805539      -0.43275225      -0.63597785
32
Lattice="7.284937783725032 -0.12579882408204515 -0.08408967679534611 -0.12579882408204515 7.2555676870244845 0.07625959735016619 -0.08408967679534611 0.07625959735016619 7.4947593200217195" Properties=species:S:1:pos:R:3:initial_magmoms:R:1:mace_force:R:3 mace_energy=-436.1848944460862 mace_virial="13.826485108137165 6.05522657241749 4.816400116542564 6.05522657241749 7.571373301405346 -5.120179499649442 4.816400116542564 -5.120179499649442 6.63049802504944" pbc="T T T"
Co      -0.20661066       0.13361505      -0.28190141       0.60000000       0.98580426      -0.50341635       2.71252384
Mn      -0.04749446       1.77034122       1.99378148       0.60000000      -0.48018659       0.01712723      -0.28917774
Fe       1.67192857      -0.05943425       2.15849192       0.60000000       0.94753970       0.23448880      -1.32576215
Mn       1.76555319       1.85741597      -0.17125920       0.60000000       0.52989023      -0.85094852       0.79567044
Co      -0.10959881      -0.04148406       3.68182882       0.60000000       0.05459502       0.25700612       0.56665852
Cr      -0.03447827       1.87387957       5.65069013       0.60000000      -0.46146475       0.92064563      -1.15342420
Ni       1.91187961       0.10128889       5.62875197       0.60000000      -0.20240913      -0.52701451      -0.68337356
Mn       1.77950416       1.99314630       3.68423852       0.60000000      -0.77390673      -0.78119460       1.60457882
Mn      -0.16792445       3.72802330       0.18260702       0.60000000       1.90631707      -0.30943266      -0.57220178
Ni      -0.01854031       5.52393302       2.00759300       0.60000000      -1.04897640      -0.59706759      -0.11274731
Co       1.93522723       3.47655833       1.79094685       0.60000000      -1.86062499       0.41352788       0.68981556
Cr       1.74274730       5.48294300       0.20056174       0.60000000      -1.13214820       0.34754168      -1.05100188
Ni      -0.09540638       3.68317270       3.77117713       0.60000000      -0.30120518       0.21284626       0.19361458
Cr      -0.04863609       5.61770701       5.78560238       0.60000000       0.40960280      -0.96978998      -0.96096388
Cr       1.84810443       3.84700315       5.61811919       0.60000000      -1.27051215      -0.92187452       1.32121489
Mn       1.84136063       5.18281204       3.72193150       0.60000000      -0.99669569       1.33298161       0.34090361
Cr       3.69586154       0.12214457      -0.00501682       0.60000000      -0.48197771      -0.68633616      -0.84919117
Mn       3.67089329       1.72537684       2.05033747       0.60000000      -0.89256276      -0.11562474      -0.74163556
Co       5.35737887      -0.19913241       1.71146228       0.60000000       0.82962053      -0.49300910       0.99537776
Mn       5.26976492       1.86904602       0.19056289       0.60000000       0.80847084      -1.02563188      -2.81301324
Co       3.73354061      -0.02302796       3.59102937       0.60000000      -0.13540345      -1.08353154       1.05304507
Fe       3.61625715       1.89915590       5.33310849       0.60000000      -0.51014321      -0.86475770       2.24843581
Fe       5.53761067      -0.11708220       5.49006695       0.60000000      -1.97224088       0.50117443      -0.41510007
Fe       5.24181203       1.93619019       3.85258769       0.60000000       2.56491265      -1.32303585      -0.70094731
Ni       3.54963630       3.50757513       0.24354962       0.60000000       0.64901405       0.30669658      -1.73640910
Fe       3.34535446       5.36700639       1.69155824       0.60000000       2.49425736       0.54137884       1.25709675
Ni       5.51616128       3.31959538       1.90825232       0.60000000      -0.61734023       2.12553239       1.01004616
Cr       5.51459132       5.07015949       0.02647908       0.60000000      -1.04113727       1.66719040       0.47927716
Cr       3.59675356       3.68818753       3.75137247       0.60000000       1.02628750       0.60138421      -0.81322592
Fe       3.56629015       5.31801677       5.88139713       0.60000000       0.51859252       1.05247984      -0.58923892
Ni       5.36869378       3.55763328       5.54704553       0.60000000       0.50143733       0.37453603       0.75126818
Co       5.37685897       5.38343281       3.93410096       0.60000000      -0.04740655       0.14612777      -1.21211335
32
Lattice="7.110406326515196 -0.12359138336634716 -0.011020353159505208 -0.12359138336634716 7.608829791481517 0.04689029159366729 -0.011020353159505208 0.04689029159366729 7.610555456466217" Properties=species:S:1:pos:R:3:initial_magmoms:R:1:mace_force:R:3 mace_energy=-432.1552234765378 mace_virial="7.945208167508037 5.286707503659115 -4.078095298774592 5.286707503659115 11.009678490804145 -3.102306491508891 -4.078095298774592 -3.102306491508891 12.05641798884811" pbc="T T T"
Mn       0.13324796       0.07530940       0.36074414       0.60000000      -1.59175138      -0.87861981      -2.98310808
Fe      -0.01801452       1.93225063       1.94870202       0.60000000       0.09681832       1.15966621       1.23417673
Cr       1.59543445      -0.05688928       1.95499324       0.60000000       2.32974814       0.42800409       1.24850683
Co       1.55576349       1.99380958      -0.00434140       0.60000000       0.79976056      -0.31097715       0.08829307
Co      -0.16489618      -0.14650773       3.90910765       0.60000000       2.26807316       2.25115420      -1.08877464
Fe      -0.08146121       2.18101354       5.51408293       0.60000000      -0.55118880      -1.06326313      -0.26395114
Mn       1.66969879       0.02808202       5.62934537       0.60000000       0.04072805      -0.28778681       1.40640609
Fe       1.78460952       1.91656808       4.17112934       0.60000000      -1.16125313      -1.40682256      -4.11576823
Fe       0.15594862       3.83924904       0.00101394       0.60000000      -0.89361854       0.26293468      -0.26558716
Mn      -0.05784262       5.63533619       1.99126662       0.60000000       0.24232368      -0.21859477      -0.51406907
Fe       1.66468172       3.88851694       1.86526487       0.60000000       0.70438594      -0.47284491       0.28307878
Co       1.53087960       5.78298406      -0.04443613       0.60000000       0.42917504      -0.57271689       0.66320345
Cr       0.01643980       3.95266070       3.85359531       0.60000000      -0.22006264      -0.48561439      -0.45699696
Cr      -0.12174166       5.64450894       5.63017939       0.60000000       0.29163657      -0.36291784       1.12028843
Co       1.78283113       3.46324907       5.69329126       0.60000000       0.45517331       2.80396049       1.48506741
Co       1.86569606       5.85815004       3.96680599       0.60000000      -0.03104951      -1.02998703      -0.68797302
Co       3.82729791       0.01217923       0.05127520       0.60000000      -0.76142026       0.09974750       0.35053463
Fe       3.43479969       2.02988770       1.80314055       0.60000000      -0.87006942      -2.71280443       0.05311500
Ni       5.37845566       0.08903775       1.99988920       0.60000000      -0.67342741      -0.58827076      -0.74052156
Mn       5.51920822       1.79814846      -0.33086403       0.60000000      -1.10191054      -0.83163435       1.78255029
Ni       3.49396081      -0.00270610       3.80522670       0.60000000      -0.03571664      -0.30813010      -0.09948511
Ni       3.41287791       1.82463381       5.62837959       0.60000000       1.82853567      -0.64250215       1.59248778
Ni       5.46213784      -0.24397050       5.56969608       0.60000000      -1.07284767       1.03620738       1.56096851
Cr       5.06619809       1.74685062       3.73726515       0.60000000       1.30525818       0.01900899       0.90151525
Cr       3.75140160       3.69856335       0.15321489       0.60000000      -4.07830176      -2.70327354      -1.50415061
Ni       3.66767462       5.36686045       1.75276128       0.60000000      -3.93977494       4.29169456       3.27837803
Cr       5.04660138       3.76631226       1.93868499       0.60000000       4.10717375      -2.51935956       1.52161035
Cr       4.96212051       5.29387610       0.08043281       0.60000000       4.88814172       3.54068457      -1.31749655
Mn       3.40187514       3.60282175       3.73062079       0.60000000       0.41048568       2.29150304       1.19268935
Mn       3.43032944       5.73246867       6.11900568       0.60000000      -0.63236103       0.43494359      -3.07060472
Ni       5.07566091       3.72681706       5.99809723       0.60000000       1.13777632       0.03529012      -3.33452963
Mn       5.36481301       5.76819016       3.70717056       0.60000000      -3.72044041      -1.25867922       0.68014651
48
Lattice="6.474110592827831 0.0182170626969599 -0.03424060358595276 0.0182170626969599 6.956329457236243 -0.018303373529399796 -0.051360905378929136 -0.02745506029409969 10.897097117390707" Properties=species:S:1:pos:R:3:initial_magmoms:R:1:mace_force:R:3 mace_energy=-650.0642364238038 mace_virial="107.71512361510366 -0.38597641437882635 0.5719190812257644 -0.38597641437882635 110.92599216049942 3.0145180075240416 0.5719190812257644 3.0145180075240416 89.15115476551605" pbc="T T T"
Mn      -0.13321156      -0.12004633       0.05459776       0.60000000       1.60580258       2.24372270      -0.73775008
Ni      -0.10235186       1.69675065       1.94608552       0.60000000       2.09064701       0.51975827      -2.63706577
Fe       1.69573694      -0.06120614       1.78933185       0.60000000      -0.92992508       0.97718857       0.95206268
Mn       1.66827624       1.66495684      -0.01031498       0.60000000      -0.51464977      -0.14125315       0.08508422
Ni      -0.08277321       0.10933435       3.61387697       0.60000000       1.44640622      -2.68623178       0.85119560
Fe       0.02916658       1.82920511       5.37700110       0.60000000      -1.18634634      -2.12039829       0.23986983
Ni       1.57817426      -0.16668340       5.43644095       0.60000000      -0.29663811       1.74087186      -0.35654269
Co       1.53763479       1.62069539       3.60665611       0.60000000       1.37082196       1.27012712       0.47581200
Mn      -0.06808532      -0.03453065       7.35400707       0.60000000       1.02562695       0.78009659      -1.73861416
Ni      -0.06492857       1.78864619       9.10997958       0.60000000       1.31204518      -0.85477819      -0.03763964
Mn       1.74725452       0.00368040       9.02181757       0.60000000      -1.53243845       0.40796428       2.09080678
Co       1.51517532       1.82570914       7.20684557       0.60000000       0.26065100      -1.08223563       0.56535446
Cr       0.07859448       3.48265896       0.04462516       0.60000000      -0.35093026      -0.08105934      -0.58120859
Co       0.10594937       5.20642203       1.82619248       0.60000000      -1.07470309      -0.21073918       0.77653000
Cr       1.69384248       3.41610323       1.78888219       0.60000000      -0.40500673      -0.50135437       0.53131908
Mn       1.68112279       5.28562905       0.10019907       0.60000000       0.34310660      -0.82062922      -1.81172794
Co      -0.04814546       3.38921603       3.49337808       0.60000000       0.28865315       1.37743745       1.26417046
Fe      -0.05676853       5.17270805       5.49207063       0.60000000      -0.39584120       0.65871756      -0.85885237
Mn       1.46733785       3.45047038       5.51949757       0.60000000       2.40454844       0.68730173      -1.82806176
Fe       1.68696065       5.12162662       3.58499656       0.60000000      -1.64944856       0.97341055       0.54683040
Fe      -0.12829802       3.50878645       7.22098486       0.60000000      -0.30696677      -0.02877898       1.65230884
Mn       0.05178812       5.30603227       9.00501103       0.60000000      -0.59203412      -1.65424932       1.27202272
Fe       1.58375385       3.46147414       9.03741478       0.60000000       0.34435011      -0.26192365      -0.31547732
Cr       1.57334122       5.18585553       7.24481888       0.60000000       0.29884350       0.01147391      -0.08305512
Co       3.37064930      -0.06297725       0.09008962       0.60000000      -0.81468863       0.54179241      -1.19491136
Cr       3.28169652       1.69665462       1.80001935       0.60000000      -0.67426581       0.33869837      -0.33510068
Ni       4.91865908       0.02811376       1.82172739       0.60000000      -0.94559239      -1.66045797       0.31480131
Cr       4.85698082       1.69140002      -0.03415926       0.60000000       0.28601630       0.81176664       0.01126808
Cr       3.20241358      -0.01177673       3.62124279       0.60000000      -0.33001540      -0.23096076       0.45857359
Co       3.25901919       1.73415885       5.49083553       0.60000000      -1.16122977      -0.35185286      -0.66097855
Cr       4.78780759       0.04486517       5.38272078       0.60000000       0.51589786      -0.14972160       1.33482218
Fe       4.84758071       1.69072886       3.49273750       0.60000000      -1.60882639       1.52667630       2.21108008
Mn       3.09625535      -0.00243816       7.31818495       0.60000000       0.73932253       0.67325232      -2.06998948
Co       3.25552099       1.73817970       9.06968020       0.60000000      -0.61072048       0.05190239      -0.51743264
Cr       4.87176394      -0.00733180       8.96936860       0.60000000      -0.79362039      -0.21502865       0.81170294
Fe       4.89778307       1.74020060       7.28765283       0.60000000      -0.90097549       0.19186384      -0.78280658
Cr       3.22955798       3.46949319      -0.10739477       0.60000000      -0.05256284       0.31663355       0.69349211
Co       3.30689893       5.16115473       1.81263361       0.60000000      -0.46310601       1.33328989      -0.41410538
Mn       4.76887417       3.53106295       1.73325739       0.60000000       1.10745181      -0.68191932       0.07214464
Fe       4.90200622       5.26117177       0.00072023       0.60000000      -0.47150672      -1.77913694      -0.37993860
Cr       3.21176016       3.57126182       3.59861662       0.60000000       0.23729693      -1.87629321       0.91646815
Ni       3.23602894       5.13499463       5.45580207       0.60000000      -0.44938291       0.73230196       0.26305540
Ni       4.77360820       3.47439697       5.46668742       0.60000000       1.27477654      -0.34304283      -1.34727958
Mn       4.77731321       5.28514229       3.66936044       0.60000000       1.47556875      -0.68209818      -0.82428469
Ni       3.26854683       3.43392544       7.15689106       0.60000000      -0.56453388      -0.15816448       1.35520356
Fe       3.32585158       5.14145018       8.97963489       0.60000000      -1.08174125      -0.12886157       1.45712675
Co       4.79569586       3.38799045       9.07462506       0.60000000       0.72852370       1.51418502       0.01941754
Ni       4.75029533       5.27419034       7.30696648       0.60000000       1.00133972      -0.97926382      -1.70970040
48
Lattice="6.980266479439749 -0.029189343456251023 -0.12763121930055457 -0.029189343456251023 6.372599118191572 0.1208528576132676 -0.19144682895083184 0.18127928641990138 10.37079215749694" Properties=species:S:1:pos:R:3:initial_magmoms:R:1:mace_force:R:3 mace_energy=-615.8808755085669 mace_virial="203.3526909590684 15.080849461224844 13.029820107376839 15.080849461224844 229.23438643050056 -23.378679671561482 13.029820107376839 -23.378679671561482 214.0837228089015" pbc="T T T"
Mn       0.18068772       0.21185667      -0.09914036       0.60000000      -4.19156781      -6.20332168       2.49113060
Fe      -0.04218009       1.53852930       1.87469976       0.60000000      -1.50943307       0.22706630      -0.66677875
Fe       1.67876833       0.11431379       1.57001525       0.60000000       1.27295402      -0.20011166       3.68315265
Co       1.55602515       1.61682069      -0.02244300       0.60000000       6.07660816       1.80490187       2.13478591
Co       0.20035066       0.16015019       3.68639623       0.60000000      -1.87572731      -1.21093774      -7.50936559
Mn       0.03533885       1.83496739       4.85990271       0.60000000       0.12241819       2.03788881       5.79747449
Fe       1.51732289      -0.04980127       5.13625033       0.60000000       3.34694533       2.63169440       6.99254392
Mn       1.71003484       1.77545157       3.48439363       0.60000000      -3.23144781      -1.51189293      -1.31889176
Mn      -0.50694074       0.39207199       6.90931658       0.60000000       7.18700428      -5.05246238      -3.77640047
Cr      -0.11582991       1.68627363       8.82989179       0.60000000       0.53084169       1.74153434      -3.55678087
Fe       1.70063158      -0.05478018       8.56128820       0.60000000      -0.57781529       3.07999929       0.44219867
Cr       1.72272555       1.82269925       7.12339215       0.60000000      -1.29148274      -1.09166613      -2.66482289
Mn      -0.05380831       3.24096791       0.05204018       0.60000000      -0.52089938       1.01067654      -0.18307338
Co      -0.01739701       4.74547557       1.99583290       0.60000000       0.13653304       6.23940635      -4.44623863
Cr       1.54067729       3.24551461       1.59796706       0.60000000       1.97586746      -3.27291115       3.07101613
Mn       1.82584853       4.80296724       0.48862106       0.60000000      -2.58567755       0.92312959      -5.38789051
Mn      -0.15981465       3.59854222       3.46670020       0.60000000      -1.45547462      -5.38144509       2.82784501
Co       0.01869132       4.98428246       5.09291799       0.60000000      -2.69820401      -3.15557185       5.19086513
Cr       1.66708490       3.45005036       5.02817405       0.60000000      -0.02551248      -2.82431380       6.08819823
Fe       1.88453758       4.59718476       3.59831496       0.60000000      -0.82061058       1.61568976      -4.68195886
Fe      -0.27295471       3.18125051       7.10488923       0.60000000       4.75315435      -0.92615800      -0.90745982
Ni      -0.02769625       5.03983156       8.68193286       0.60000000      -4.58779119      -1.53441514       3.72587434
Co       1.65271943       3.30605427       8.82867119       0.60000000      -2.27653039       1.51992209      -2.44170320
Ni       1.29564802       4.93035109       7.17274145       0.60000000       3.43012658      -1.60857206      -5.52197833
Cr       3.42897090      -0.09151035      -0.22728988       0.60000000      -0.77610900      -0.04318608       2.20339340
Fe       3.46378172       1.55374042       1.82442763       0.60000000       0.15956792      -1.04318640      -3.42813802
Ni       5.01607273       0.05872646       1.52868432       0.60000000       2.69948463       3.43378564       3.59933710
Fe       4.98601984       1.39197269      -0.36637725       0.60000000       2.54542797      -0.67145760       7.40212426
Ni       3.03573757      -0.07944224       3.73734624       0.60000000       2.75712170       2.62580899      -6.39580458
Fe       3.25213041       1.71036435       5.07443825       0.60000000       0.95283315       0.68027718       3.91669467
Mn       4.93268134       0.11720551       4.81971032       0.60000000       2.35377737      -1.34187099       8.16285556
Cr       5.33581153       1.46698945       3.66708299       0.60000000      -2.23285300       5.66580479      -6.08364208
Ni       3.50450554       0.14593719       6.82945203       0.60000000      -2.12066032      -0.74382915       0.61673879
Cr       3.27366690       1.69546629       8.66037228       0.60000000      -1.60587205       1.32829209      -2.25631536
Mn       5.17114642       0.16366517       8.48641785       0.60000000      -1.83559900      -5.54280526       1.94824662
Fe       5.14964580       1.58611774       7.03153896       0.60000000      -5.75769044       6.98767004      -3.41856081
Cr       3.36878563       3.31032069      -0.09689154       0.60000000       2.57801100      -1.85054712       3.82476453
Ni       3.52445861       4.81343925       1.81164404       0.60000000       0.06669437      -0.99710087       2.88073781
Co       5.36473755       3.15034344       1.57284352       0.60000000      -2.63443620      -1.84227923       0.85698263
Mn       5.20730344       4.95005841       0.35005240       0.60000000       1.54444866      -2.92480996      -5.70387479
Ni       3.33978446       2.91131141       3.31354021       0.60000000       6.17550201       6.12650482       0.76905056
Cr       3.54148643       4.96843149       5.46634905       0.60000000      -2.27127242      -0.85761596      -1.76744344
Ni       5.27962607       3.57246647       5.33991828       0.60000000      -0.76931244      -6.02834155      -7.73798606
Cr       5.26415793       5.16068814       3.53379983       0.60000000      -2.43801345      -2.91126019      -3.39429176
Co       3.39935584       3.48962957       6.71300230       0.60000000      -3.20431592      -4.41847381       3.12229612
Co       3.22605400       4.83341607       8.73734838       0.60000000       3.02231348       0.59200895      -2.41569468
Co       5.10951426       3.07090787       8.82413122       0.60000000      -0.45427269       6.29422131      -2.86777681
Ni       5.19384200       4.47672199       7.00129514       0.60000000       0.06094581       8.62426064       6.78456434
32
Lattice="6.2983036205066645 0.1325119255070106 -0.2444245164663411 0.1325119255070106 6.19673181197675 0.09151959127888787 -0.2444245164663411 0.09151959127888787 6.7976762939858535" Properties=species:S:1:pos:R:3:initial_magmoms:R:1:mace_force:R:3 mace_energy=-389.53621620148175 mace_virial="278.105281799035 -25.417046533932933 36.95307472920201 -25.417046533932933 269.7633989641201 -8.283405488951113 36.95307472920201 -8.283405488951113 251.76034422824569" pbc="T T T"
Mn      -0.10349724       0.08077336       0.08961730       0.60000000      -0.80211448       1.71291606      -2.18897645
Fe       0.21099432       1.72763901       1.80865576       0.60000000     -11.92443508      -0.37709679      -7.72633507
Cr       1.44360328       0.08290412       1.77867353       0.60000000       2.40314915      -2.77644881      -3.48358611
Mn       1.57361140       1.55077568      -0.13659608       0.60000000       0.88567457      -1.41957945       4.73220232
Fe      -0.21360408       0.05278497       3.37184691       0.60000000       1.84818274      -0.99593455       2.84925967
Cr      -0.13998166       1.66504454       5.06115635       0.60000000      -2.41651230      -0.04597171      -1.10089314
Fe       1.23391605       0.07334379       5.10431808       0.60000000      -0.05761989       3.76503773      -1.35965070
Ni       1.39867584       1.68630559       3.15923843       0.60000000       5.66195098      -3.52631020      15.07296158
Cr       0.09963246       2.96584064       0.01972624       0.60000000      -0.52883939       1.95081403       0.79998519
Co       0.01605608       4.84659758       1.67802016       0.60000000       2.97299103      -6.58174503       1.53491354
Cr       1.67906072       3.18171565       1.77769780       0.60000000      -5.83639632       9.01499915      -5.97569207
Mn       1.65000716       4.82264467      -0.16485757       0.60000000       3.25482962      -3.16129400       8.49657667
Ni       0.01671124       3.19295800       3.45747410       0.60000000      -2.19104145       3.16677486       0.31068864
Co       0.06805630       4.65715210       5.31055723       0.60000000      -7.67899037      -2.17683089      -4.28559851
Ni       1.48829746       3.08642451       5.12270421       0.60000000       0.57552874       3.16699131      -1.83425355
Co       1.68908796       4.91868478       3.57866557       0.60000000      -9.10527120      -4.03511129      -4.95238653
Co       3.21240870      -0.00128133      -0.12896754       0.60000000       1.07690133       0.87340978       2.46208436
Mn       2.92028009       1.83475791       1.79562772       0.60000000       6.56769755      -8.53394873      -6.62222369
Fe       4.78090753       0.09800635       1.62570511       0.60000000      -6.17405642       3.73024727      -2.53738545
Fe       4.59567000       1.80607809      -0.14111722       0.60000000       6.65477033      -8.86213329       2.18547994
Ni       3.09187910      -0.03736863       3.36266519       0.60000000      -0.04390980       9.88660769      -3.76867746
Ni       2.80354161       1.53155695       5.11194292       0.60000000       3.98576125      -1.55657444      -4.33568874
Cr       4.60164029      -0.02594523       4.90593590       0.60000000       0.92595684       2.67539797       2.82128462
Co       4.50136745       1.66194085       3.27972408       0.60000000       1.18570626      -0.15843877       0.29321216
Co       3.39720735       3.09847751      -0.17229902       0.60000000     -11.15331739       5.61108848       1.74447353
Cr       3.25891821       4.73494794       1.73302657       0.60000000      -3.07479224       4.26810334      -5.43202694
Fe       4.58236333       3.21714666       1.71900901       0.60000000       5.64091902      -2.97955035      -1.76230391
Cr       4.74280164       4.56578502       0.00551551       0.60000000       2.48966412       2.13149986      -2.78865744
Mn       3.02285843       3.32928592       3.20202218       0.60000000      -0.64679487      -3.20725335       6.93301754
Mn       2.98029147       4.89548850       4.99479006       0.60000000       4.49424003      -3.61065125       7.80595168
Mn       4.39164329       3.04960312       4.89860493       0.60000000       2.41082025       2.72967381      -0.00537258
Ni       4.56688828       4.71077449       3.32363235       0.60000000       8.59934737      -0.67868842       2.11761692
48
Lattice="7.963136059143373 0.11031079715260722 0.2037414789579978 0.11031079715260722 7.646996227649265 -0.21917261352506098 0.30561221843699665 -0.32875892028759146 11.258861574140752" Properties=species:S:1:pos:R:3:initial_magmoms:R:1:mace_force:R:3 mace_energy=-645.6864776297189 mace_virial="-33.30283652127416 -3.9321455449120384 -13.323779165021184 -3.9321455449120384 -23.939074357377663 23.753364254999045 -13.323779165021184 23.753364254999045 -15.27486736826091" pbc="T T T"
Fe      -0.23011568      -0.07250480       0.32185600       0.60000000       0.79625491       0.13002986      -1.25602643
Ni       0.05331673       2.09252232       1.85263376       0.60000000      -0.38664495      -1.48213459      -1.35457913
Mn       1.91498162      -0.07410140       1.93743932       0.60000000       0.54543219       0.30910126       0.03524821
Fe       1.94262925       1.79056093      -0.14517212       0.60000000       0.03421195       0.93557484       1.21570235
Fe      -0.16309074      -0.09389376       3.81848340       0.60000000       0.62262179       0.68188064       0.09017877
Co       0.30847325       1.42550168       5.71268960       0.60000000      -0.19117697       1.19002716      -1.10009116
Mn       2.13670290      -0.39227902       5.69372196       0.60000000       1.45963708       1.95783406      -0.09832428
Cr       2.25982140       1.91787275       3.87296354       0.60000000      -1.86986227      -1.24836806      -0.66925769
Cr       0.36635582      -0.06525441       7.49578982       0.60000000      -0.26663164      -0.27951441       1.41704589
Fe      -0.08833498       1.50019560       9.38651936       0.60000000       2.01863447      -0.21261013       0.89598566
Co       2.15901011      -0.12937946       9.57013043       0.60000000      -0.01698352      -1.11938303      -0.39464851
Co       2.22692096       2.04758749       7.32672025       0.60000000      -0.86975912      -0.83406720      -0.29278161
Fe       0.21560772       3.73674564      -0.25056155       0.60000000      -0.50543132       0.17463743       0.40483764
Cr       0.23384617       5.56851201       1.85991003       0.60000000      -0.78344429      -0.38718447      -0.18783944
Ni       1.88794901       3.79902725       1.66584988       0.60000000       0.85474689      -0.36452293       0.00522791
Ni       2.02869935       5.69389091      -0.31562033       0.60000000      -1.08919185       1.67449494       0.94417837
Co       0.26908542       3.49125778       3.46741149       0.60000000      -0.57748749       1.09832892       1.69980809
Mn       0.38924500       5.73901315       5.57942929       0.60000000      -2.27634496      -1.63346359      -0.96377064
Co       2.25546215       4.08476742       5.35461362       0.60000000      -1.73493338      -2.29650943       4.32342887
Ni       2.04136535       5.47513602       3.79474913       0.60000000      -0.53945708       2.34633518      -2.78132766
Cr       0.30662617       3.79699437       7.56464683       0.60000000       0.40843230      -2.20776880      -2.04783263
Ni       0.29485583       5.31415435       9.04040060       0.60000000       0.30374637       1.92572952       2.29208543
Cr       2.68731042       3.74474175       9.42544657       0.60000000      -2.61493278      -0.67272651      -0.13780223
Co       2.21485519       5.50606934       7.32922161       0.60000000       0.57829911       0.18355033       0.88544569
Co       3.92190246      -0.37078201       0.08845077       0.60000000      -0.16284101       0.50295675      -0.01156985
Ni       3.99013935       1.96053562       1.95786896       0.60000000      -1.06691067      -0.10417085       1.07535569
Ni       6.17099941       0.02307045       2.16708211       0.60000000      -1.02866388      -0.22769537       0.45376770
Mn       5.54635198       1.79799312       0.39942611       0.60000000       1.33875520      -0.20473032      -1.17197352
Fe       3.86619586      -0.10608669       3.97680344       0.60000000       0.98303388       0.82667736      -0.18916568
Ni       4.00402481       1.92728136       5.42250336       0.60000000       0.71831748      -0.22862311       1.18153503
Fe       5.78569270      -0.31825035       5.48849809       0.60000000       0.44598080       3.39445923       2.34172216
Fe       6.09618952       1.82643589       3.90631625       0.60000000      -0.29275172      -0.42801837      -1.03709837
Cr       4.00040587       0.28133844       7.58847243       0.60000000       0.21050815      -1.66231209      -0.94040146
Mn       4.25327014       1.77072228       9.38409469       0.60000000       0.04176461       0.11114926       0.81203397
Mn       6.11334209      -0.17858777       9.69453693       0.60000000       0.17175627      -0.49357823       0.63526288
Cr       6.31845668       1.93875972       7.50216401       0.60000000      -1.06207051      -0.88247073      -0.71766197
Cr       3.89789057       4.22933070      -0.05207749       0.60000000       0.56594339      -1.02664841       0.86315884
Mn       4.19725280       5.86345616       2.06202858       0.60000000      -0.71684250      -0.56947044      -1.26155498
Fe       5.83835596       3.76477660       1.84127328       0.60000000       0.95348129       0.69077604       1.05420645
Co       5.99994650       5.39103270      -0.03052279       0.60000000       0.70471136       1.08983532       0.48694298
Fe       3.62694550       3.81962906       3.83802482       0.60000000       3.68815177      -0.44912975      -2.99596871
Mn       4.32056195       5.41202730       5.73336049       0.60000000      -0.66415309       0.45861989       1.26578309
Cr       6.02640415       3.52402620       5.49832547       0.60000000       0.75878457       0.86709542       0.60817487
Mn       6.00601739       5.73719066       3.88509338       0.60000000       1.46747606      -2.62974224      -2.38186995
Ni       3.86884943       3.56274420       7.65563522       0.60000000       2.13599960       0.31864637      -2.44500796
Co       4.35353112       5.60480731       9.05487869       0.60000000      -0.27901438       0.62674668       0.11347509
Cr       6.44927251       3.35594864       9.45907915       0.60000000      -1.46364575       1.42397820       0.31951306
Mn       6.49856638       5.92979209       7.58442434       0.60000000      -1.34750633      -1.27362161      -0.98355082
32
Lattice="7.657567654446844 -0.27878007947367117 -0.046514227046437914 -0.27878007947367117 6.978591802314662 -0.10789984401890108 -0.046514227046437914 -0.10789984401890108 7.6371841200449" Properties=species:S:1:pos:R:3:initial_magmoms:R:1:mace_force:R:3 mace_energy=-434.9795757037829 mace_virial="8.428045040788017 16.35852597814398 -3.4126890836844375 16.35852597814398 4.47715614599789 10.341584670080364 -3.4126890836844375 10.341584670080364 5.302760250110528" pbc="T T T"
Cr       0.01890355      -0.38331521       0.05334852       0.60000000      -0.33695028       1.57363860       0.00489404
Cr      -0.08461571       1.59624172       1.81020498       0.60000000       0.48338837       0.15658422       1.03054034
Ni       1.98774781      -0.25272554       1.88589834       0.60000000       0.09097076       1.50754548       0.35152763
Fe       1.52911320       1.54890569      -0.14911235       0.60000000       0.87966402       0.73643398       0.50375995
Ni      -0.04091068       0.36634330       4.35527516       0.60000000       0.68432625      -1.13806661      -1.45715866
Co      -0.32942872       1.90597977       5.87180960       0.60000000       0.74450014       0.80095581       0.18950575
Ni       2.11172352       0.03311820       5.71305398       0.60000000      -1.18531261      -1.09342737      -0.11250718
Mn       1.91512278       1.79425559       3.61538957       0.60000000      -2.25700622      -2.60750298       1.51039148
Co      -0.14352993       3.55524000       0.25197937       0.60000000      -0.33394112      -0.26802195      -1.57559568
Fe      -0.06572759       5.04893180       1.91119815       0.60000000      -0.13209420       1.38617633       0.05748461
Co       1.75878025       3.35780484       1.84786943       0.60000000       0.16354723       0.59407343      -0.56396477
Mn       1.64713552       5.28182899       0.00812483       0.60000000       1.14097792      -1.15467385      -1.25374548
Fe      -0.14243203       3.52810077       3.60968389       0.60000000       1.00664644      -2.16587518       1.29782903
Cr      -0.14979646       5.24610084       5.61486589       0.60000000       0.70931886      -0.64843787       0.10207571
Co       1.79284840       3.21804290       5.70759794       0.60000000      -0.74885826       0.40556211       0.01589602
Fe       1.55337885       5.42921265       3.64043652       0.60000000       0.65511045      -0.66572842       1.29573220
Fe       3.93874915      -0.15599572       0.14247785       0.60000000       0.09882844       0.12396469      -1.16330667
Mn       3.66019813       1.59967310       1.80325357       0.60000000       1.00207882       0.13050928       0.36983947
Cr       5.73207763      -0.17233654       2.27342827       0.60000000       0.28480616      -1.10761834      -2.17245549
Co       5.93839938       1.39091292      -0.01650426       0.60000000      -1.19345298       0.53193022       0.38336256
Ni       4.00238740       0.03894284       3.93690995       0.60000000      -3.60804867      -2.55779872      -0.10619489
Cr       3.76704717       1.56824311       5.81329530       0.60000000       0.75150971       0.23665928       0.03455119
Ni       5.65730980      -0.15602057       5.82372435       0.60000000       0.44391961      -0.73502734      -0.17149196
Ni       5.65057576       1.25743885       3.81877571       0.60000000       2.18089261       4.75613282       1.16974795
Mn       3.61914754       3.40633339      -0.11613226       0.60000000      -0.20697143      -0.19838401       0.33794137
Mn       3.64026786       5.02934044       1.98707042       0.60000000      -1.12071300       0.54486293       0.94445638
Cr       5.45167203       3.48445781       1.86898832       0.60000000       0.37991023      -2.26013975      -0.21816160
Fe       5.48488684       5.22047265       0.29377064       0.60000000      -0.06274254      -0.14841801      -1.60110158
Co       3.51137100       3.20495900       3.77820548       0.60000000       2.17614690       1.72135216       0.42293501
Cr       3.69452953       5.07424354       5.75235346       0.60000000      -0.99100740       0.28640969      -0.83157003
Mn       5.51437640       3.42143918       5.67640618       0.60000000       0.41106922      -0.92309117       0.82027128
Mn       5.91586286       4.88637510       3.71401654       0.60000000      -2.11051343       2.17942053       0.38451201
32
Lattice="7.670787434124664 0.118718993231002 0.08697069412515575 0.118718993231002 7.933037966894185 -0.1546261012720143 0.08697069412515575 -0.1546261012720143 7.683500202140724" Properties=species:S:1:pos:R:3:initial_magmoms:R:1:mace_force:R:3 mace_energy=-432.6801098290292 mace_virial="-25.488479337055296 -2.527161138593673 -3.377550774430945 -2.527161138593673 -29.257761222673626 6.285282502531122 -3.377550774430945 6.285282502531122 -25.739112092404245" pbc="T T T"
Mn       0.03358808       0.25519722       0.17632180       0.60000000       1.43561610      -1.57316692      -2.19625548
Co      -0.20416188       1.95021549       1.70026391       0.60000000       1.50111446       2.24481789       1.16603279
Co       1.86939755       0.15146410       1.72032993       0.60000000       1.31116557       0.18386165       0.17682912
Ni       2.14889657       2.11965685      -0.18145429       0.60000000      -0.85529731      -0.16752396       0.73064884
Mn       0.13552873      -0.14664304       3.78782717       0.60000000      -0.81069061       1.46008492       0.66363508
Cr       0.03647744       2.16466810       5.79761288       0.60000000       1.39196018      -1.01150547      -0.80821859
Mn       2.03212413       0.06145447       5.69533575       0.60000000      -0.23038612       0.03943660       1.39307608
Mn       2.16332186       1.97547081       3.69281747       0.60000000      -0.31653273       0.00150335      -0.32789498
Fe       0.03613604       4.03226492      -0.05011389       0.60000000       0.44610912       0.31840427       0.30453578
Cr       0.35653591       6.09259105       1.89329976       0.60000000      -0.42164499      -0.97534057      -1.13319905
Cr       1.96538588       4.05755903       1.90991611       0.60000000       0.34993200      -0.54514028      -0.64267545
Co       2.03367251       5.82282413      -0.25388160       0.60000000      -0.98178770       1.35841098       1.12404397
Fe       0.02286734       3.63920336       3.62117191       0.60000000      -0.53433324       0.63550105      -0.08294014
Co       0.06743901       5.97446514       5.61328375       0.60000000       0.25868742      -0.46223307       0.14275016
Ni       2.37036716       4.23347661       5.73018707       0.60000000      -1.57422464      -1.82777143      -1.31681022
Mn       2.14564331       5.90406496       3.77228387       0.60000000      -0.58151633      -0.28368967       0.02046100
Ni       3.91291698       0.17189325       0.00448087       0.60000000      -0.62886829      -0.09510339       0.59335057
Ni       3.75333245       2.19482410       1.72789213       0.60000000       0.46613542      -0.35983793      -0.05908120
Cr       5.95525424       0.44597243       1.98860217       0.60000000      -2.60645569      -1.32639476       0.78332399
Mn       5.82149048       2.01131051      -0.20214919       0.60000000      -1.68907790       1.18566584       1.35397619
Co       3.81892418      -0.27323323       3.98957205       0.60000000       0.68024727       0.69703254      -0.70252098
Cr       3.86407395       2.04999098       5.69277246       0.60000000      -0.27708022      -0.20656255       0.60766690
Ni       5.71067204       0.09815423       5.99574506       0.60000000       0.65248171      -1.03863533      -1.13679618
Fe       5.68599293       2.07752782       4.18295184       0.60000000       0.66180508      -0.69618460      -1.19368205
Ni       3.66781178       4.08931549      -0.10579861       0.60000000       1.13352760      -0.12974797       0.85878597
Fe       3.98214599       6.10387701       1.83313705       0.60000000      -0.33934210       0.71094189      -1.30156413
Co       5.62787682       4.13954957       1.90934695       0.60000000       1.00186888      -0.93359617      -1.77116397
Fe       6.13221687       6.14100094      -0.05231262       0.60000000      -0.77982383       0.30287901       0.16328497
Cr       4.04338629       4.11736613       3.60734335       0.60000000      -1.04795482      -0.82547154       1.12035785
Cr       3.87934717       5.98456020       5.77642143       0.60000000       1.89642225       0.69535577       0.32427672
Mn       5.78352257       3.97465623       5.87140008       0.60000000      -0.04677940       1.24076724      -0.20988026
Fe       5.91188829       5.80065515       3.35841492       0.60000000       0.53472287       1.38324263       1.35564673
48
Lattice="7.1488997373125445 -0.04748580900039146 -0.10953505499338623 -0.04748580900039146 7.331271986521249 -0.1834886192464287 -0.16430258249007934 -0.275232928869643 10.51767514548894" Properties=species:S:1:pos:R:3:initial_magmoms:R:1:mace_force:R:3 mace_energy=-652.7633847120032 mace_virial="44.132227726715435 7.218704603210883 10.173502381266259 7.218704603210883 36.51192753313551 19.61212710607127 10.173502381266259 19.61212710607127 44.35634261852719" pbc="T T T"
Co       0.05703836       0.23458583      -0.05222694       0.60000000       0.29702592      -2.06818100      -0.21913928
Mn       0.03828778       1.90079474       1.51851728       0.60000000      -0.66804149      -1.50337644       2.03461709
Co       1.79568142       0.07229660       1.74021600       0.60000000      -0.83211485      -1.12455837      -0.15939298
Fe       1.79860475       1.96451812       0.08331153       0.60000000       0.73272787      -0.96548084      -1.47739498
Mn      -0.06161524      -0.31470524       3.46870727       0.60000000       1.01643072       2.62377695      -1.17591185
Mn      -0.09925334       1.69927746       5.23493287       0.60000000       0.28594435      -0.98967706      -0.19591726
Ni       1.62485793      -0.14472309       5.06404437       0.60000000       1.33281688       0.27732389       0.91582798
Fe       1.98532017       1.69039923       3.38082249       0.60000000      -3.69060078      -0.07310774      -0.37823976
Co       0.05073525      -0.20057281       7.03575372       0.60000000      -1.12830863      -0.74312420      -0.35623549
Cr       0.10834428       1.49931052       8.72400990       0.60000000      -2.79473613       0.66138257       0.72530078
Co       1.69066128      -0.13591824       8.65103662       0.60000000       0.93474899      -1.56160951       1.76674666
Co       1.60964073       1.43960827       7.03982878       0.60000000       1.14158074       1.40442148      -2.50007200
Ni      -0.06613968       3.60307032      -0.05720629       0.60000000       0.18937755       0.60579945      -1.00748128
Fe       0.06650948       5.36496476       1.39239867       0.60000000      -0.79940548       1.19974694       1.10687088
Ni       1.62183135       3.66938130       1.65905554       0.60000000       1.76086703       0.04100263       0.23613095
Fe       1.65644289       5.52380995      -0.21056762       0.60000000       1.28158628       0.76522550      -0.26270433
Mn      -0.07640236       3.47547240       3.25277891       0.60000000      -0.13284175       1.15395702       1.96431843
Cr      -0.09521462       5.41364760       5.11982821       0.60000000      -0.10393898      -0.85109149       0.35488719
Fe       1.49201240       3.58972221       5.25546367       0.60000000       1.48495434       0.04383046       0.03366445
Co       1.62634101       5.37811192       3.32781189       0.60000000       0.62127606      -0.02934170      -0.36987187
Cr      -0.17504603       3.47866514       7.02893509       0.60000000      -0.32720173      -0.54836194      -1.42385536
Mn      -0.10948191       5.05877124       8.58907629       0.60000000      -0.53997435       2.37637176       0.44355528
Cr       1.60120403       3.29271372       8.35062299       0.60000000       1.36007729       1.08002912       1.57929833
Ni       1.73868533       5.34616276       6.89309070       0.60000000       0.00688505       0.25020530      -0.64859877
Mn       3.53821370       0.11894352       0.13964655       0.60000000      -0.72117077      -0.86080835      -2.13193277
Mn       3.67324687       1.84330610       1.84001303       0.60000000      -1.90889546      -0.17766715      -1.98660090
Cr       5.35736231      -0.01254140       1.52732462       0.60000000       0.89024791       0.10805257       0.94550137
Mn       5.30728188       1.91595420      -0.02287638       0.60000000      -0.07541987       0.10190330      -2.43438719
Co       3.59591443      -0.12206710       3.25474963       0.60000000      -0.61830298       0.03270584       1.27469059
Fe       3.42007725       1.76981601       4.97031979       0.60000000       0.24397880      -1.37019716       2.36696535
Cr       5.31800911      -0.26219458       5.11341510       0.60000000      -0.43000710       1.19096086       0.29484756
Co       5.16024570       1.85831018       3.39665542       0.60000000       2.58655937      -1.68516601       0.75630268
Cr       3.46163940       0.07947733       6.87520744       0.60000000      -0.37447398      -1.68426665      -0.36851383
Ni       3.45342146       1.66265890       8.68893467       0.60000000      -0.14841399      -0.03158990       0.39408619
Co       5.24100025      -0.43111331       8.60196348       0.60000000       0.94978231       2.07190880       0.91854563
Cr       5.15137886       1.48355601       6.91844362       0.60000000       0.86665158       0.74028532       0.45640650
Mn       3.37687137       3.75491931      -0.03894328       0.60000000       1.31688671      -0.41027394      -1.41280320
Fe       3.48606001       5.43557065       1.60465576       0.60000000      -1.34151157       0.01757031       0.06275948
Ni       5.18006629       3.55980885       1.70985323       0.60000000       0.84974275       1.31523556      -1.05360342
Cr       5.30676090       5.62907979      -0.14237890       0.60000000       0.27041868      -1.29189738      -0.25010379
Fe       3.46071513       3.51145701       3.46514770       0.60000000      -0.70769450       2.72522798      -0.61763439
Ni       3.44100692       5.43958776       4.80870226       0.60000000      -0.18541675      -0.23357723       1.58704211
Fe       5.20312069       3.30880357       5.13252072       0.60000000       0.79463277       2.06557543       0.12735091
Mn       5.26069754       5.51143372       3.18180553       0.60000000      -0.18415291      -2.27249945       0.15476384
Ni       3.60215698       3.58174456       6.78463606       0.60000000      -1.00331298      -0.57687884       0.16932046
Cr       3.56958425       5.36754495       8.45952941       0.60000000      -1.73112827      -0.81064593       1.10893474
Ni       5.24168175       3.41396467       8.63508041       0.60000000      -0.87079186      -0.27554813      -0.09625578
Fe       5.20945979       5.40671241       6.77086978       0.60000000       0.10265722      -0.71357263      -1.25208493
32
Lattice="7.577152755435971 0.10663570452287705 -0.017208706637005532 0.10663570452287705 7.000000772920639 -0.031106385434907284 -0.017208706637005532 -0.031106385434907284 7.005311956013295" Properties=species:S:1:pos:R:3:initial_magmoms:R:1:mace_force:R:3 mace_energy=-438.1834460038664 mace_virial="10.16219422825225 -6.602274574683665 1.1293332089465045 -6.602274574683665 20.82019571355244 -0.17605575753971664 1.1293332089465045 -0.17605575753971664 22.960534172892118" pbc="T T T"
Co       0.16815745      -0.06271053       0.01880690       0.60000000      -1.43529352       0.74736619      -0.54965995
Mn       0.09653987       1.78115303       1.80432686       0.60000000      -0.33021741      -0.22043801      -0.76698456
Co       1.92697359       0.01659826       1.83817121       0.60000000       0.11371132       0.43811656      -0.74661705
Fe       1.89515285       1.66542863      -0.05191195       0.60000000       0.58912123       0.40393823       0.59610241
Mn      -0.15351245      -0.02622923       3.40539711       0.60000000       1.07501698       0.56113251       1.61313583
Co       0.04854978       1.86973822       5.40531898       0.60000000       0.07936005      -1.62356512      -1.80580852
Co       1.95275497      -0.08027026       5.31866704       0.60000000      -0.28561587       0.85624648      -0.91185426
Ni       1.87744685       1.85235574       3.43772694       0.60000000       0.54687438      -0.30514568       0.64728808
Mn       0.06777359       3.51561464      -0.05524588       0.60000000      -0.39211861       0.53429784       1.04665798
Cr       0.08351137       5.38999009       1.77028030       0.60000000      -0.13806813      -1.20888654      -0.62120445
Mn       2.05753784       3.76114579       1.73337122       0.60000000      -0.75830207      -2.33210761       1.49599759
Mn       1.90577363       5.20563582      -0.02611868       0.60000000       0.98318070       1.63540317      -0.82137561
Ni      -0.05318324       3.48687342       3.40096881       0.60000000       0.90951300       0.10061445       1.24084562
Fe       0.12664746       5.31637196       5.22526109       0.60000000      -0.56793485      -0.53976292      -0.53185438
Fe       1.93189306       3.48317534       5.24725539       0.60000000       0.09744268      -0.09051205      -1.04010220
Cr       1.99539436       5.37160765       3.49273079       0.60000000      -0.42185080      -1.12315963       0.64371054
Cr       3.77196289      -0.01423850      -0.06836544       0.60000000      -0.12612956      -0.11922146       0.11283340
Ni       3.73978626       1.75193604       1.75986870       0.60000000       0.24386143       0.27164711      -0.23387473
Ni       5.56932067      -0.03005415       1.63907820       0.60000000       0.42870372       1.30865180       0.35561528
Cr       5.73221125       1.80078898      -0.02849511       0.60000000      -0.09722356      -0.08002891       0.43076876
Mn       3.87565791      -0.09626802       3.47401876       0.60000000      -0.71355692       1.98678697      -0.29863346
Fe       3.78409421       1.84477082       5.25984684       0.60000000       0.30382719       0.07151180      -0.90850529
Ni       5.62812769       0.00440028       5.16666443       0.60000000       0.45369559       0.59831565       0.77812572
Ni       5.73965129       1.71638979       3.43043946       0.60000000      -0.60747432       0.89180900       0.34851469
Fe       3.83875924       3.58428764      -0.03992614       0.60000000       0.38304369      -0.59572814      -0.15099171
Cr       3.80818108       5.27149759       1.69460732       0.60000000       0.74785811       0.53841021      -0.36440571
Cr       5.72229913       3.55734793       1.81325243       0.60000000      -0.11995592      -0.20966318      -0.92838155
Mn       5.77220640       5.35701964      -0.05267464       0.60000000       0.09653060      -0.33496591      -0.36660922
Co       4.00633960       3.58351594       3.38530716       0.60000000      -1.07416694      -1.10533523       0.90461289
Fe       3.95176037       5.16504788       5.09022231       0.60000000      -0.58838641      -0.39376921       1.12636467
Co       5.77173662       3.44528159       5.20936664       0.60000000      -0.19648147       0.45746743      -0.59297781
Cr       5.74166385       5.36193432       3.41693185       0.60000000       0.80103568      -1.11942581       0.29926702
48
Lattice="7.667618468763525 0.1125121653165723 0.358272597086791 0.1125121653165723 7.452274015801601 0.19938304904966786 0.5374088956301865 0.2990745735745018 11.50092446275178" Properties=species:S:1:pos:R:3:initial_magmoms:R:1:mace_force:R:3 mace_energy=-639.3435193760824 mace_virial="10.661359286767023 -9.495786026950926 -26.769062685674626 -9.495786026950926 9.852947217623319 -17.087366166082976 -26.769062685674626 -17.087366166082976 5.069155258002511" pbc="T T T"
Mn      -0.15586259      -0.06924763      -0.16415803       0.60000000       2.28033315       1.48202584       0.93301578
Cr       0.01395226       1.61966362       1.84825367       0.60000000       0.47827500       0.69341387       0.07737637
Fe       2.21064239      -0.12859043       2.33459410       0.60000000       0.12069517       3.83323497      -2.95828691
Co       1.99971153       1.92022719      -0.07776859       0.60000000       0.12413414       0.12058439      -0.06034459
Mn       0.35722486      -0.11932591       3.63692305       0.60000000      -2.70344049       1.25511487       2.43832570
Ni       0.57142717       2.23261463       5.90873559       0.60000000      -0.77398059      -0.89695859       0.88487788
Mn       2.47463774       0.21206079       5.78068125       0.60000000      -2.39080254      -1.42255238       0.56612437
Co       2.08926854       1.75128040       4.28134887       0.60000000       0.11296152       1.32122675      -2.39390066
Cr       0.49075510      -0.16003404       7.46542457       0.60000000      -2.18950432       4.40159159       0.92612389
Ni       0.64891074       2.24668156       9.81307611       0.60000000       0.11116675      -0.43153246      -1.02026251
Co       2.54823526       0.06629951       9.51527845       0.60000000      -1.88818733       0.64541214       1.62067578
Ni       2.61524055       2.05151484       7.43981639       0.60000000      -3.92872983      -2.40263556       1.52963472
Cr       0.13945228       3.64043512       0.08743880       0.60000000       0.01167568       0.84979685       0.35313744
Mn       0.03558127       5.53211979       1.90870289       0.60000000       0.65111642       0.39683715      -0.04161918
Cr       2.10233672       3.85601544       2.58055220       0.60000000       0.84821645      -1.88782323      -2.62569756
Co       2.35731262       5.66370129       0.17980660       0.60000000      -0.60915862      -0.50818591      -0.32109632
Mn       0.50051881       3.88115416       4.18082504       0.60000000      -0.13703458      -0.25672897      -1.82138786
Ni       0.65577563       5.86323338       5.88243102       0.60000000      -2.12586451      -0.44932534      -1.97107081
Fe       2.24527156       4.17766544       5.99387556       0.60000000       0.41881872      -1.96158841      -0.56137250
Cr       2.16273160       5.66921395       3.78974737       0.60000000       0.40225230      -1.04592171       3.71882403
Co       0.43786343       4.00109825       7.57639433       0.60000000       0.07529399      -0.77092972       0.61257701
Co       0.75949248       6.08738286       9.66393915       0.60000000      -0.74211048      -0.70455466       0.53971424
Fe       2.13374800       4.31442482       9.47337203       0.60000000       0.61386829      -0.85037049       0.37521375
Fe       2.15137169       6.01136835       7.53432608       0.60000000       2.77836609      -2.39055654       3.25071053
Cr       3.78811956       0.19255134       0.01165066       0.60000000      -0.70053727       0.33074703       1.07944693
Mn       4.12911098       1.99754180       2.14810215       0.60000000      -3.91710718       2.68321346      -0.74599061
Fe       5.38838402       0.43016156       2.26224631       0.60000000       4.17574131      -4.48222354      -2.35014077
Ni       5.93245886       2.15999883       0.37498880       0.60000000      -0.07430455      -1.64236222       0.88346069
Mn       4.17449835       0.09206692       4.08982880       0.60000000      -1.02320682      -1.25640262      -0.79951334
Fe       3.94775280       1.83373537       5.73891537       0.60000000       2.21149383       1.91611826       0.82387322
Cr       5.73198586       0.27003075       5.88010408       0.60000000       1.86014059      -0.39261814       1.14069221
Ni       5.84001622       1.83226156       4.01169126       0.60000000       1.03894734       1.29261669       0.48698073
Fe       4.19527683       0.00538737       8.21171927       0.60000000       1.13272331       3.79686101      -3.60637724
Co       4.46415878       2.35718143       9.51403334       0.60000000      -1.72585285      -2.03266275       3.30149929
Mn       6.14493795       0.10466599      10.16969093       0.60000000      -0.37031204       2.25226764      -4.53623969
Co       5.99446435       2.04695349       8.08629269       0.60000000       1.82986392      -0.47093475      -1.44384122
Ni       4.09076346       3.64603454       0.14904522       0.60000000      -1.88182118       0.65839757       1.01430324
Cr       3.83483329       5.80622239       2.27612513       0.60000000       3.28921639      -1.14201490      -1.40853672
Mn       5.61632163       4.04732690       2.49534695       0.60000000       1.54519682      -0.14299078      -1.22481651
Co       6.06451461       5.82382046       0.33047768       0.60000000      -0.93132309      -3.17593241       2.19061726
Fe       4.15209757       3.53220621       4.29236221       0.60000000      -0.84888118       1.62367716       0.66956740
Fe       3.99510323       5.77499559       6.24053053       0.60000000       2.29926814      -0.91233374      -0.60816603
Fe       6.39522695       3.86924919       5.77876088       0.60000000      -2.80831039      -0.15728240       2.24477634
Ni       6.22812385       5.79003076       4.22423488       0.60000000      -0.64493517      -0.19378440       0.42936687
Mn       3.92372302       3.56234258       7.84726650       0.60000000       3.07819306       4.47265707      -1.81959346
Ni       4.42570929       5.67306860       9.35737884       0.60000000      -0.80474311      -3.20645712       2.62572461
Cr       6.19216475       3.82097637      10.11547255       0.60000000       1.84684106       1.74403037      -2.03853347
Cr       6.35639791       5.87817074       7.99348001       0.60000000      -0.11465132      -0.58216094      -0.35985232
32
Lattice="7.745389922507442 -0.19307379898343802 0.17576040269320176 -0.19307379898343802 7.415994953819186 0.08148863979575163 0.17576040269320176 0.08148863979575163 7.873896782299454" Properties=species:S:1:pos:R:3:initial_magmoms:R:1:mace_force:R:3 mace_energy=-435.47005480329767 mace_virial="-25.56776261804269 10.410891846291015 -7.120153003254601 10.410891846291015 -24.788665436352392 -1.977065161657645 -7.120153003254601 -1.977065161657645 -26.495472819235307" pbc="T T T"
Cr       0.03578912       0.16970212      -0.13032762       0.60000000       0.19614050      -1.31244600      -0.02821288
Fe       0.01112376       1.80519094       1.87853039       0.60000000      -0.26867651       1.27195033       0.96310736
Cr       2.07689712      -0.01379503       2.05027069       0.60000000      -0.13120104      -0.24288303      -0.80100345
Cr       1.80830733       1.87491610       0.18866107       0.60000000       0.58519787       0.63177710      -1.04098374
Cr       0.12156309       0.11625120       3.94400222       0.60000000      -1.13163581      -0.68431799       0.13751989
Co       0.03174109       1.85934734       5.87369553       0.60000000      -0.01243455       0.75977827       0.17623222
Co       2.15716093      -0.10026502       5.98222927       0.60000000      -0.48296110      -0.24699167      -0.30944383
Mn       2.00495583       1.62719339       4.12217518       0.60000000      -0.14461863       1.55054893      -0.29216491
Ni       0.06303496       3.82285153       0.24750116       0.60000000      -0.70363048      -0.14549385      -0.37272113
Fe       0.14507447       5.59929342       2.04464387       0.60000000      -0.67820368      -0.91276629      -0.04674903
Ni       2.06520179       3.70862193       2.08921594       0.60000000      -0.62732517       0.28272817       0.11890368
Fe       1.88061936       5.37314240      -0.01300642       0.60000000      -0.62952870       0.64659697       1.10133064
Co      -0.01274905       3.76151677       3.98900968       0.60000000       0.33181034       0.16009045      -0.28505813
Co      -0.02404772       5.75391646       5.84844690       0.60000000       0.05924389      -0.20840879       0.50731718
Mn       1.85758600       3.88610539       5.84461812       0.60000000      -0.54283868      -0.59799047       0.11132119
Ni       1.81610475       5.66520007       3.92807622       0.60000000       0.09008997      -0.53513973       0.40221109
Cr       3.82023889      -0.06724353       0.06385676       0.60000000       0.39561815      -0.50781203       0.18719419
Mn       3.80198652       1.82849499       1.97112878       0.60000000       0.63119844       0.96193487       0.66409351
Mn       5.99353855      -0.22832919       1.84473860       0.60000000      -0.77841622       0.49438633       1.76849519
Fe       5.70931489       1.78674726       0.24557034       0.60000000       0.83970505       0.93798689      -0.92086958
Fe       3.86395756      -0.01632312       3.98562996       0.60000000       0.91983455      -1.00109390       0.15905286
Mn       3.93100522       1.80384914       6.05559537       0.60000000       0.00665489       0.47680971       0.23223676
Co       6.00157893      -0.04156810       6.08526379       0.60000000      -0.04236141      -0.23822281       0.00407505
Mn       5.90758697       1.81990071       4.30086204       0.60000000       0.13237302      -0.10302612      -1.45673535
Ni       3.60244246       3.74101847      -0.03981199       0.60000000       0.83899831      -0.28762703       0.57111536
Co       3.85832376       5.52695690       2.11136098       0.60000000      -0.27573701      -0.34861911      -0.17372611
Ni       5.77913737       3.61162383       2.19647621       0.60000000       0.37988612       0.09829826      -0.42818302
Ni       5.75194905       5.52316079       0.37127339       0.60000000      -0.09253268      -1.41016186      -1.04602353
Cr       3.91685173       3.81599958       4.04474015       0.60000000      -1.14000976      -1.22725901      -0.48373230
Cr       3.85546833       5.49308960       5.95546833       0.60000000       0.23746065       0.74480777       0.50408935
Fe       5.96810297       3.85698646       5.99022137       0.60000000       0.70301387      -1.25538282       2.33617380
Mn       5.70816389       5.28654768       4.23112771       0.60000000       1.33488583       2.24794844      -2.25886232
48
Lattice="7.32658494169451 -0.15560285815991187 -0.32778456231532677 -0.15560285815991187 7.406793003799923 -0.03143897300372444 -0.4916768434729901 -0.04715845950558665 11.315180877050782" Properties=species:S:1:pos:R:3:initial_magmoms:R:1:mace_force:R:3 mace_energy=-656.0899874042946 mace_virial="-5.627276518740906 15.272850770576664 29.919448720970298 15.272850770576664 -10.24160342419646 1.224525934167895 29.919448720970298 1.224525934167895 -10.700004784740145" pbc="T T T"
Co      -0.03878280      -0.01113511      -0.06760707       0.60000000      -0.24535026      -0.06505753       0.63336383
Ni      -0.08511329       1.82496921       1.91399564       0.60000000      -0.63761497       0.10869909      -0.86579389
Fe       1.60562182      -0.08466296       1.85584235       0.60000000       0.16718019      -0.03116356      -0.71852995
Mn       1.87007182       1.71151372      -0.05139191       0.60000000      -1.24750091       1.75039081       0.66319853
Cr      -0.17488133      -0.08341030       3.65349027       0.60000000      -0.65350626       0.31645315       0.91024506
Ni      -0.33064056       1.86932888       5.67063923       0.60000000       0.19486325      -0.22235584       0.14560197
Fe       1.46274617      -0.04547328       5.59800239       0.60000000       0.03115168       0.70847364       0.47020762
Mn       1.58997589       1.69471829       3.66550063       0.60000000       0.79024248       0.88800908       0.43321057
Ni      -0.41438851      -0.06382819       7.63249263       0.60000000       0.44692733       0.08345787      -0.32389024
Mn      -0.41818023       1.74207468       9.38315677       0.60000000       0.12399795      -0.07767179      -0.25674650
Fe       1.58754266      -0.01860371       9.51854120       0.60000000      -1.92835719      -0.82798446      -2.17725774
Ni       1.37227001       1.88428172       7.34484271       0.60000000       0.37357544      -0.35515706       0.48866923
Fe      -0.00762874       3.86528567       0.00617871       0.60000000      -1.18492743      -1.68573907       0.83123139
Ni      -0.22475597       5.71196416       1.83640430       0.60000000      -0.35400612      -1.25997219      -0.29510324
Co       1.75998129       3.71547542       1.78442359       0.60000000      -1.01446967      -0.48098571      -0.35812738
Mn       1.74431800       5.38932466      -0.13214907       0.60000000       0.95128857       0.88634920       0.14136752
Cr      -0.14839088       3.57685627       3.74595001       0.60000000      -0.40949062       0.77819189      -0.19654094
Cr      -0.43429998       5.46194185       5.65806430       0.60000000      -0.04801473       0.09990753      -0.29471023
Co       1.62116830       3.67409548       5.63933870       0.60000000      -0.45527531      -0.84289100      -0.51750472
Ni       1.63229138       5.42650069       3.50220614       0.60000000      -1.08668126      -0.09227020       0.95338013
Ni      -0.51434900       3.80749421       7.72994898       0.60000000      -0.07636754      -1.17767767      -1.17514337
Cr      -0.46834832       5.47544383       9.41496595       0.60000000      -0.81991585       1.24347650      -0.29475332
Co       1.18312895       3.54685223       9.36808688       0.60000000       1.12851063       0.13749768       0.03554091
Mn       1.33429794       5.41518997       7.36237843       0.60000000      -0.52057252       0.33825555       1.27619380
Mn       3.56441142      -0.08619360      -0.13788849       0.60000000       1.83829457      -0.42593915       1.27821030
Cr       3.54952193       1.87774273       1.62951775       0.60000000       0.17806544      -0.66908461       0.70405899
Co       5.31868942      -0.08461136       1.71278892       0.60000000       0.41690727       0.18026017      -0.49728691
Fe       5.42748974       1.74472873      -0.29565036       0.60000000       1.30490641      -0.31621926       1.06330304
Cr       3.40267545      -0.22443718       3.56182401       0.60000000       1.25616769       1.48329528       0.55646581
Fe       3.53736517       1.70283148       5.59220808       0.60000000      -1.85913882      -0.83024054      -1.18292782
Ni       5.25024411      -0.17370990       5.44053089       0.60000000       0.06775652       0.30328340      -0.22663838
Ni       5.28288232       1.69308082       3.57214390       0.60000000      -0.08353889      -0.25026080      -0.21473436
Fe       3.18029660      -0.17561209       7.39381795       0.60000000       0.61402201       0.80300296       0.03160092
Mn       3.23084757       1.73189922       9.31847188       0.60000000      -1.27528974      -0.20247703      -1.41823588
Co       5.05481429      -0.06794248       9.19308876       0.60000000       0.34054775      -0.29378911       0.12341797
Mn       5.01971751       1.68795554       7.32360161       0.60000000       1.34007732      -0.27036106      -0.08005498
Co       3.64492494       3.58007421      -0.36994428       0.60000000      -0.21845150       0.41734698       0.98045822
Cr       3.39367560       5.50044100       1.81553461       0.60000000       0.47712234      -0.49444393      -0.68941607
Fe       5.33289080       3.56024055       1.56922160       0.60000000       0.44116399       0.10225658       0.18284585
Fe       5.22080882       5.49626733      -0.03079395       0.60000000       0.93037332       0.01247831      -0.42060256
Cr       3.44471742       3.55721706       3.60376920       0.60000000      -0.32218855       0.20413370      -0.04093258
Mn       3.23396883       5.56479232       5.46214486       0.60000000       0.44091923      -0.33731289      -0.39428335
Cr       5.10619908       3.59093508       5.31152857       0.60000000       0.66956378      -0.09501914       0.51299146
Co       5.25296211       5.41054418       3.40814996       0.60000000       0.06587146      -0.17690058      -0.18838083
Fe       3.17543497       3.62374493       7.37186121       0.60000000      -0.05618799      -0.36389732      -0.26785607
Cr       3.28900112       5.54002002       9.20754395       0.60000000      -1.00941239      -0.54753270      -0.21533473
Mn       4.90280240       3.57485099       9.16622426       0.60000000       1.28288242       0.83139737       0.39642215
Co       5.05451534       5.34862898       7.15759941       0.60000000      -0.36612048       0.71578747       0.49880078
48
Lattice="7.381979797245244 0.15284590980136858 -0.17203031560602244 0.15284590980136858 6.864800769469974 -0.36673342140987936 -0.25804547340903367 -0.550100132114819 10.88602123100467" Properties=species:S:1:pos:R:3:initial_magmoms:R:1:mace_force:R:3 mace_energy=-641.5235137057284 mace_virial="57.802210790120625 -18.70033450515494 20.57261576043642 -18.70033450515494 71.4320606052071 49.28779341779133 20.57261576043642 49.28779341779133 75.68604404506742" pbc="T T T"
Ni      -0.00859290       0.19282459       0.11120863       0.60000000       0.93047351      -0.16416208       0.65191211
Fe      -0.17309803       1.86162054       2.16190074       0.60000000       1.76132224      -2.07496277      -4.20939313
Co       1.85944020      -0.30753591       2.00668693       0.60000000      -0.25500332       1.24563916      -1.12708852
Cr       1.97932645       1.73762278      -0.45360255       0.60000000       0.66639587       1.05470185       3.36511908
Cr      -0.10228548      -0.23046880       3.57911123       0.60000000      -0.29679412      -0.28215965       1.76012390
Cr      -0.15691439       1.59198264       5.28528970       0.60000000       0.58052265      -4.86841997       0.05077598
Mn       1.78417591      -0.53582368       5.24500474       0.60000000      -2.37791812       4.40566270       3.19639266
Fe       1.79661357       1.43128200       3.50009786       0.60000000       0.64984792       1.09498043       0.60660479
Ni      -0.17964365      -0.33683592       7.20585338       0.60000000       0.06999954      -0.81640274      -0.94235002
Fe      -0.07639862       1.04457258       8.91770947       0.60000000      -0.78626442       1.28897147      -0.11181160
Fe       1.87018569      -0.48515319       9.26979094       0.60000000      -3.05017378      -0.98916495      -3.93187496
Ni       1.76698224       1.35082560       7.13733632       0.60000000      -1.83577428       0.67492731      -0.25287629
Ni       0.32772758       3.38370676      -0.35715316       0.60000000      -2.93434088       0.25354884       0.47341609
Fe       0.15084392       5.17034819       1.67422584       0.60000000      -1.34987473      -1.03838967      -1.25753228
Cr       1.64060348       3.44214760       1.59931583       0.60000000       1.51959142      -1.00901632       0.57350226
Mn       1.92193700       5.11326279      -0.24416773       0.60000000       0.63133410       0.68553561       0.22412400
Ni      -0.01978337       3.24213655       3.75906164       0.60000000       1.14950128      -1.83746994      -4.27349944
Fe      -0.00514059       4.69217734       5.02367370       0.60000000       0.52053002       5.30247081       4.44318782
Co       1.67351684       2.94268409       5.38667001       0.60000000       2.02853504       0.74763164      -0.86110477
Ni       2.16530943       4.90431654       3.45250753       0.60000000      -4.14606138      -2.85832588      -3.95874276
Co      -0.21367344       2.95771662       6.79900179       0.60000000       1.30844032       1.43459424       5.08104298
Co      -0.11030615       4.88274647       8.99391328       0.60000000       0.55225572      -1.44655709      -1.17365145
Ni       1.78901002       2.96959181       9.03352229       0.60000000      -0.76918498       0.94986164      -2.62881749
Mn       2.06025549       4.69956099       6.98074319       0.60000000      -2.97472904       0.52848732      -0.26601603
Mn       3.68260346      -0.02465264      -0.27049014       0.60000000       1.88630892       0.10878116       3.40949869
Cr       3.55556961       1.71813365       1.67651850       0.60000000      -0.20964252      -0.40709663      -0.59576832
Cr       5.51531565       0.22345109       1.57729555       0.60000000      -0.66573476      -1.46974002       0.28307833
Cr       5.37742670       1.64602614      -0.15883275       0.60000000       0.84180807       1.19567062       0.29622439
Ni       3.52054489      -0.36508994       3.68741540       0.60000000       1.51256587       3.60894579       0.40322666
Fe       3.81928934       1.54587497       5.36600447       0.60000000      -3.83996690      -0.30993489      -6.41740672
Co       5.18891989      -0.38166444       5.33942184       0.60000000       2.07294894      -0.09562042      -0.02546581
Fe       5.52148908       1.61730975       3.36274381       0.60000000      -2.03524602      -0.33728293       1.03233780
Mn       3.42061057      -0.06456676       7.03729763       0.60000000       0.48974087      -3.92726688       1.28680688
Mn       3.49331482       1.49679985       8.73435181       0.60000000      -0.66187375      -1.91558716       1.15321949
Cr       5.34401451      -0.36169158       9.03932486       0.60000000      -0.51077101       0.57537723      -0.88316709
Co       5.02006439       1.41769732       6.91373744       0.60000000       7.56619296      -2.04564383       2.98610906
Co       3.93817817       3.50010491      -0.35745327       0.60000000      -0.85091858       1.07949130       2.18111430
Ni       3.90127368       5.23346605       1.61237017       0.60000000      -0.47837231      -1.57918523      -3.38217622
Co       5.73944899       3.57578450       1.41241102       0.60000000      -0.51042173      -0.56075275      -1.49293619
Co       5.69780189       5.30965540      -0.34753695       0.60000000       0.64709053      -0.51404942      -0.12177883
Fe       3.73433945       3.33997538       3.29380912       0.60000000      -0.56843020      -2.82103852      -0.58935309
Fe       3.66538074       4.79641802       4.94147490       0.60000000       2.14033290      -0.56823712       3.63764069
Mn       5.59713254       3.22200283       5.14506491       0.60000000      -2.57272231       1.09038145      -0.43990497
Mn       5.48086013       4.82444742       3.16186910       0.60000000       1.80146220       2.45154406       0.83637118
Mn       3.84810048       3.12583873       6.88126056       0.60000000      -2.48832722       2.62078287       0.20751030
Mn       3.69899505       4.69080282       8.61463175       0.60000000       0.64924411      -0.25152482       1.24008130
Cr       5.15313997       2.81996752       8.82426135       0.60000000       3.80548168       1.43800437       0.24003599
Cr       5.50051619       4.90230134       6.96142556       0.60000000       0.38661965       0.35199981      -0.67674076
32
Lattice="6.66034263786496 -0.04425399250010023 -0.15323409096933138 -0.04425399250010023 6.383888545075301 -0.18806497585404347 -0.15323409096933138 -0.18806497585404347 6.554229155413459" Properties=species:S:1:pos:R:3:initial_magmoms:R:1:mace_force:R:3 mace_energy=-411.7669215157482 mace_virial="178.97012779187938 3.6794730948036696 18.754979027693654 3.6794730948036696 188.81054292370058 30.60468403750047 18.754979027693654 30.60468403750047 186.7507830131499" pbc="T T T"
Cr      -0.15322192      -0.05905656      -0.02619741       0.60000000       4.10252821       3.51737896       1.41172189
Co      -0.10064410       1.69954421       1.37606119       0.60000000       1.61596229      -2.99073850       4.31976572
Fe       1.56821797      -0.06933679       1.65985376       0.60000000       0.57452064       1.10320752      -1.87078701
Ni       1.67393917       1.43606325      -0.17513498       0.60000000      -0.36445737       2.06950343       3.43689484
Fe      -0.04647714      -0.09411390       3.35846084       0.60000000      -1.36504939       0.12406037      -1.75193661
Mn      -0.08863596       1.42833693       4.83072819       0.60000000      -1.46215961       1.34440988       0.26532456
Cr       1.59911822      -0.21820989       4.84601917       0.60000000      -1.52470691      -0.72021780       1.59877425
Cr       1.66165302       1.44683646       3.22013583       0.60000000      -2.07328177       0.97099528      -3.12700211
Mn      -0.24148240       3.11787102      -0.10263733       0.60000000       4.20891103       1.36500687      -0.84262206
Mn      -0.03683868       4.71896444       1.49308617       0.60000000      -0.56729104       0.85438287      -0.05202062
Co       1.52654115       3.11844205       1.56002914       0.60000000       2.77426958      -1.06751551      -1.47636637
Ni       1.54571937       4.65538836      -0.10683244       0.60000000       0.36198017       1.34532349      -0.61861129
Cr       0.04049370       3.20361410       3.12101193       0.60000000      -1.28331629      -2.72327050       1.37245090
Ni      -0.17826958       4.60436017       4.81173880       0.60000000       1.62856469      -0.20357951      -0.99981232
Mn       1.58517808       2.97276760       4.82627371       0.60000000      -2.25014486       2.51326595      -0.42354982
Fe       1.57915158       4.79545549       3.07845054       0.60000000       0.12425444      -1.95932868      -1.26242886
Fe       3.35075380      -0.17181046      -0.11813994       0.60000000      -1.31268565       1.36033157       1.24046641
Mn       3.32601526       1.41723602       1.44105399       0.60000000      -1.71481040       1.61439555       1.14570131
Co       4.94656526      -0.11469026       1.44157288       0.60000000       0.96166413       0.47599007       2.64193038
Co       4.93219133       1.59966724      -0.05383449       0.60000000      -2.81874355      -2.27526223      -3.40507672
Cr       3.32209146      -0.09762453       3.30497402       0.60000000       0.29127547      -0.15189223      -3.59915128
Ni       3.07439793       1.51961483       4.79388682       0.60000000       5.23067930      -1.69910305       1.94056171
Fe       4.86746806      -0.23145405       4.79457214       0.60000000       0.84159010       3.16657005      -0.30990652
Ni       4.93865375       1.41004865       3.03350927       0.60000000       0.68936381       2.18355781       0.67835028
Cr       3.33748882       3.28896089      -0.08273910       0.60000000      -1.55724111      -2.59622278      -2.43836398
Co       3.34410679       4.66029845       1.37684477       0.60000000      -2.82735289       3.30410845       2.06382605
Fe       4.89836028       3.26087830       1.38817640       0.60000000       1.22001721      -3.09738933       1.58499181
Ni       5.05287851       4.81646220      -0.32888950       0.60000000      -2.50290267      -2.00751249       0.54855473
Cr       3.26407631       3.18300781       3.15896846       0.60000000      -0.42984076      -2.27246603      -2.13718142
Mn       3.20025228       4.71091881       4.58159703       0.60000000       0.24318293      -2.49729741       2.20199760
Mn       4.81459050       3.01896012       4.76336533       0.60000000      -0.33767456      -1.93668593      -2.19636174
Co       4.98404603       4.60878554       3.02365560       0.60000000      -0.47710518       0.88599386       0.05986632
48
Lattice="6.986468984757848 -0.1463131877970461 0.042255141625090545 -0.1463131877970461 7.620575497018159 -0.22948961171715604 0.06338271243763581 -0.34423441757573403 11.381629993816784" Properties=species:S:1:pos:R:3:initial_magmoms:R:1:mace_force:R:3 mace_energy=-654.9841927736787 mace_virial="-2.567954657263237 15.542528380626432 -3.3233833296325797 15.542528380626432 -8.377837253478424 17.546475348195152 -3.3233833296325797 17.546475348195152 -5.122239605305113" pbc="T T T"
Ni       0.00850312      -0.01491626       0.02347453       0.60000000       0.19211358       0.15549459      -0.37131037
Cr       0.00794577       1.92263591       1.80210989       0.60000000      -0.50464279      -0.61931373      -0.10827149
Cr       1.69153896      -0.18719343       1.95946562       0.60000000       0.26152952      -0.41800129      -1.21043547
Ni       1.70597994       1.91706568       0.00037569       0.60000000       0.20806834      -0.35122768      -0.38704663
Ni       0.16893042      -0.09655259       3.85983796       0.60000000      -2.40655719      -1.11977958      -0.21378843
Mn      -0.11031943       1.63831532       5.60611217       0.60000000       1.87846939       0.33432418       1.41608127
Fe       1.67163751      -0.14823804       5.58450845       0.60000000       1.43087736      -0.40798139       1.57141874
Cr       1.73716174       1.53831658       3.65021069       0.60000000       0.31030388       2.49113013       1.34733089
Ni       0.01253151      -0.25219993       7.43067760       0.60000000       0.73378025       1.30418297       1.04672458
Co       0.02576778       1.70374936       9.48415127       0.60000000       0.24870469      -0.94905717      -0.48988951
Ni       1.74169741      -0.37492933       9.39125108       0.60000000      -0.22656252       0.86548146       0.51269333
Co       1.80750836       1.76546792       7.49483357       0.60000000      -0.13848675      -1.29988488       0.11833573
Mn      -0.22200634       3.82782236      -0.05269381       0.60000000       1.29636506       0.16971563      -0.79416551
Mn      -0.33782296       5.67018906       1.91457552       0.60000000       1.00156390      -0.03590968      -1.09982169
Ni       1.75597160       3.76459643       1.82801177       0.60000000      -0.48714529      -0.55940084      -0.72050344
Cr       1.72998030       5.59634007      -0.23566520       0.60000000      -1.38234703       0.91123098       0.98866596
Ni      -0.01629693       3.63545930       3.70181261       0.60000000       0.01981990       0.49618187       0.25319470
Fe      -0.24572018       5.60976521       5.59295279       0.60000000       1.08449557      -0.18947007      -1.61309322
Co       1.70898130       3.61600740       5.72871840       0.60000000      -0.30678337      -0.11064541      -0.62517529
Mn       1.56305372       5.48405098       3.53642793       0.60000000       0.88848008       0.62724557       1.33348174
Mn      -0.06813806       3.49214941       7.47625661       0.60000000       1.37714392      -0.24629510       0.27545006
Fe      -0.11396684       5.30152097       9.17666851       0.60000000       0.38023891       2.05141657       1.46921954
Cr       1.83250701       3.48080875       9.36057966       0.60000000      -0.84062938      -0.54573023      -0.23748557
Mn       1.68146688       5.44214293       7.49248923       0.60000000       0.03246618       0.70034837      -1.57125792
Co       3.54252841      -0.12485698      -0.05107203       0.60000000      -0.93466550       1.09205084       0.58629692
Fe       3.37194587       1.66492670       1.98362129       0.60000000       0.96623334       0.15794728      -1.41642191
Co       5.17006143      -0.34411946       1.85468040       0.60000000      -0.12419197       1.84192074       1.09172271
Cr       5.13415683       1.82432747      -0.10335620       0.60000000      -0.18267969      -0.52721470       0.69544948
Cr       3.56124451      -0.15383877       3.92606870       0.60000000       0.50231262      -0.53701611      -0.55433360
Fe       3.67833043       1.90963691       5.77299946       0.60000000      -1.72753676      -2.26418127      -0.43843817
Fe       5.16987078      -0.31728874       5.74421779       0.60000000       0.01050979       0.12716282       0.10409951
Mn       5.40571623       1.73998429       3.87369672       0.60000000      -1.81330280      -1.07152376      -2.64037183
Co       3.52023906      -0.25089526       7.67184568       0.60000000       0.07356662       0.58252017      -0.18149091
Ni       3.46947001       1.61327454       9.54232608       0.60000000       0.09528486      -0.67831669      -0.90807210
Fe       5.27878655      -0.30733478       9.66086118       0.60000000       0.61978200       0.11218758      -1.36171125
Co       5.25134118       1.56594762       7.53492776       0.60000000      -0.44081377      -0.64258301       1.08383402
Fe       3.36578230       3.75082111      -0.12972259       0.60000000       0.32176088      -0.62326770       0.44141392
Co       3.36671167       5.51708972       1.61128152       0.60000000       0.01708582       0.74376829       1.07915421
Cr       5.09508962       3.67202405       1.71015772       0.60000000      -0.50898518      -0.48742449       1.45991881
Cr       5.07330820       5.74966688      -0.04166287       0.60000000       0.64786675      -0.90813906      -1.89732115
Mn       3.38041285       3.67528535       3.64324808       0.60000000       0.58158121      -0.36118778       0.85308606
Ni       3.55788365       5.41880935       5.54698956       0.60000000      -0.87610885      -0.00244685       0.14867244
Mn       5.31979433       3.45585470       5.72213162       0.60000000      -0.55420686       1.99799552      -1.33555093
Co       5.07957748       5.51183483       3.62753392       0.60000000      -0.04883694       0.19910310       0.84069539
Fe       3.45457370       3.52167685       7.48761823       0.60000000       0.42024353       0.31537904       0.41795644
Mn       3.34712769       5.43138711       9.39687257       0.60000000       1.27554800      -0.18246545      -0.72673832
Fe       5.33259558       3.53511091       9.28381094       0.60000000      -1.97908372      -1.44307808       0.73770990
Cr       5.28507430       5.48998107       7.40066508       0.60000000      -1.39262959      -0.69524570       1.03008832
32
Lattice="7.079181695208187 0.12607907291022735 0.09128720865355765 0.12607907291022735 6.626569782343879 -0.02801342956068022 0.09128720865355765 -0.02801342956068022 6.941000585696328" Properties=species:S:1:pos:R:3:initial_magmoms:R:1:mace_force:R:3 mace_energy=-428.47842997789087 mace_virial="80.145066887572 -10.026751814847291 -10.898752977198496 -10.026751814847291 90.05649485900668 10.05170824552054 -10.898752977198496 10.05170824552054 87.19078079314568" pbc="T T T"
Cr      -0.07927199      -0.19606098      -0.14993579       0.60000000       1.35259098       2.51615164       1.77168046
Mn       0.04021620       1.62831027       1.77000363       0.60000000       1.02937671       1.97481796      -1.85566897
Fe       1.70498183      -0.06518607       1.90440927       0.60000000       0.38949386       0.68044455      -2.79270451
Co       1.89077379       1.81348741       0.10232986       0.60000000      -1.38007231      -1.33106373       0.93091722
Cr       0.01501920       0.06448060       3.32717580       0.60000000       0.30285201      -1.12564943       2.56824500
Ni       0.22655646       1.73632562       5.13746995       0.60000000      -1.29734197      -2.56790563       0.81583734
Fe       2.03186706       0.17657593       5.25357156       0.60000000      -1.99263839      -0.57101504      -0.38982611
Cr       1.86159435       1.80624908       3.34362424       0.60000000       0.67086558       0.03587886       0.85012062
Ni       0.12790929       3.34296848      -0.15710904       0.60000000      -0.97145985      -0.63390107       2.87032868
Mn      -0.05738967       4.93492000       1.80682221       0.60000000       1.71764322      -0.74590358      -1.80661158
Fe       1.96290410       3.44792208       1.69612758       0.60000000      -1.05485606      -0.09256765       0.03647665
Co       1.93214865       4.91767953      -0.19518443       0.60000000      -1.46471423       2.64802786       1.94275557
Fe       0.10893503       3.54795240       3.87118801       0.60000000       0.59514856      -6.78844211      -8.26759051
Ni       0.11888067       4.87246183       5.16122376       0.60000000       0.40635448       6.41806396       3.76838820
Mn       1.88425245       3.21917588       5.31422396       0.60000000       2.34280729       0.62287241      -1.54401765
Fe       1.80997906       5.01048074       3.39858683       0.60000000       0.97611866      -0.66762299       1.92546371
Fe       3.49321079       0.13742699       0.13282896       0.60000000       0.51218529      -2.30281960      -1.63466500
Co       3.55946359       1.50923803       1.71175233       0.60000000       0.23070466       3.12269089       1.69847845
Cr       5.30558334       0.12800061       1.84798037       0.60000000       0.17109418      -0.99743716      -1.02550577
Mn       5.41948389       1.74795222       0.02844586       0.60000000      -0.10111051       0.70809296       1.12330724
Cr       3.61210458      -0.08137701       3.55071048       0.60000000      -0.24441958       1.99922339       0.48463756
Co       3.60331469       1.79994348       5.45438316       0.60000000       1.29909449      -0.15088690      -1.92641955
Mn       5.34581002       0.23735918       5.21599573       0.60000000      -0.08522139      -2.05572992       0.89854254
Mn       5.45413274       1.63260345       3.51454014       0.60000000      -2.11107792       1.93223612       0.92289380
Ni       3.66574402       3.60528888       0.11394815       0.60000000       1.05645440      -2.66886192       0.63223967
Ni       3.58323744       5.15636270       1.79594721       0.60000000       1.53442717      -1.08977583      -0.84107025
Cr       5.44259693       3.36963876       2.09839938       0.60000000       0.14410471      -0.71346900      -3.46646349
Co       5.54483655       5.00282271       0.05487031       0.60000000      -2.24741715       0.79155445       0.34029408
Ni       3.70878025       3.46856776       3.45134583       0.60000000      -1.72398192      -1.79699024       0.47068834
Cr       3.64297468       4.96587534       5.18729332       0.60000000       0.73727989       0.75518152       0.55313371
Mn       5.33513323       3.37773266       5.28572351       0.60000000       0.16605364      -0.44435377       0.00810483
Co       5.45362016       4.96285286       3.53971706       0.60000000      -0.96033851       2.53915900       0.93800970
32
Lattice="6.985052079322156 -0.1508270836659672 -0.10221228587183086 -0.1508270836659672 6.644944700276676 0.3140592854611529 -0.10221228587183086 0.3140592854611529 6.460776020303141" Properties=species:S:1:pos:R:3:initial_magmoms:R:1:mace_force:R:3 mace_energy=-407.0085912658809 mace_virial="149.27612093906225 22.468480435247013 15.715267195540136 22.468480435247013 172.31534520563275 -51.28051082392685 15.715267195540136 -51.28051082392685 177.7818949690725" pbc="T T T"
Mn      -0.08680269      -0.10285133       0.03248780       0.60000000       2.72612657       1.44933147      -2.71614603
Cr       0.11238604       1.80927750       1.74027769       0.60000000      -6.43984418      -0.32130623      -2.68126115
Cr       1.57601186       0.29248630       1.62427344       0.60000000       3.52852594      -5.62374923       0.16310878
Mn       1.64639012       1.66190344       0.18450502       0.60000000       0.53670136      -2.62562974      -1.20180883
Ni      -0.01040524       0.23478234       3.20699163       0.60000000      -3.84896403      -5.47533970       3.28411141
Co      -0.03438397       2.04456729       4.89038455       0.60000000      -3.24415239      -4.48282901       2.90847578
Cr       1.74988419      -0.16517713       4.74732339       0.60000000      -2.86338796       6.03384592       0.59930775
Fe       1.45199724       1.63225578       3.34202537       0.60000000       6.17790675       3.26609107       2.82403208
Mn      -0.18836087       3.39911750       0.25594790       0.60000000       2.50966201      -2.31913572       5.19905407
Co       0.00094806       4.96138625       1.84353480       0.60000000       0.10485839       2.51336972       0.26131075
Cr       1.48551765       3.36031582       1.83805695       0.60000000       3.60304119       1.24038481      -0.03631714
Fe       1.92936259       4.91426151       0.14252539       0.60000000      -6.14252961      -2.42338034       3.85246671
Co      -0.17222992       3.42837645       3.37281364       0.60000000      -0.26785769       1.55101582       0.68653291
Co      -0.35779164       4.87492175       5.18424149       0.60000000       6.66484728      10.81872674      -5.29981439
Fe       1.56573050       3.34136184       5.21075025       0.60000000      -1.66014882       3.38290863      -5.80803270
Cr       1.65266452       5.22128010       3.57276736       0.60000000      -3.70568872      -3.41031105      -3.43201338
Fe       3.42499748      -0.25914883      -0.07863147       0.60000000      -0.62150998       5.61486263       2.90776586
Mn       3.49335637       1.70628048       1.78782647       0.60000000      -0.61126420      -0.27112054      -1.23194240
Ni       5.37969964      -0.21853126       1.48242333       0.60000000      -0.21479847       7.14214308      -1.83291781
Fe       5.03902369       1.61610478       0.03049624       0.60000000       0.97126042      -2.07230521       1.51824795
Co       3.58060953      -0.03938081       3.23522140       0.60000000      -3.56432405       3.07128065      -2.37679118
Mn       3.46636235       1.74174388       4.81205554       0.60000000      -0.64700256      -0.94919937      -0.27639716
Ni       4.89168769      -0.08714839       4.95781161       0.60000000       3.92776065       6.87443577      -8.18494746
Cr       5.20216178       1.47900952       3.14894717       0.60000000       0.34021071       2.09216650       1.45272703
Cr       3.26363550       3.11653548      -0.13581179       0.60000000       4.72296464      -1.86650055       5.60092097
Mn       3.27095660       4.81017946       1.95767721       0.60000000      -1.10675918       1.54485247      -3.03496045
Mn       5.20785530       3.37638370       1.81122877       0.60000000      -1.42997102      -0.81315890      -0.39393473
Ni       4.95309523       5.13147182       0.25721386       0.60000000       1.27930904     -10.92985053       4.89262698
Co       3.26211378       3.34132475       3.36300128       0.60000000       0.88177308      -1.41727005       1.72047362
Ni       3.20610778       4.97653892       5.00562739       0.60000000       4.69945923      -0.23743545      -1.64132089
Fe       5.29700634       3.52359945       5.21077004       0.60000000     -10.41688944      -4.51061802      -5.18198560
Ni       4.88772711       5.22105121       3.20990405       0.60000000       4.11068503      -6.84627561       7.45942865
32
Lattice="7.963392744038488 -0.2575483317120991 -0.16217655507209364 -0.2575483317120991 8.062393005920459 0.06687582615354953 -0.16217655507209364 0.06687582615354953 7.996696766763462" Properties=species:S:1:pos:R:3:initial_magmoms:R:1:mace_force:R:3 mace_energy=-431.60188762819007 mace_virial="-54.95204988698232 9.683895095844413 7.731239520391824 9.683895095844413 -57.40884770351872 -0.7779414233916039 7.731239520391824 -0.7779414233916039 -55.77729297448306" pbc="T T T"
Mn       0.10565701      -0.02773899      -0.00132071       0.60000000      -0.92356611       0.40859565      -0.72806251
Cr      -0.02606156       2.21068495       1.89905990       0.60000000      -0.35368998      -0.93783585      -0.06995473
Cr       1.80846072      -0.08907695       1.75261598       0.60000000       1.09217914       0.71386736       1.58724657
Ni       1.90695182       1.96774456      -0.06065464       0.60000000       0.02994614       0.11984858      -0.02515336
Fe      -0.13812946      -0.02110662       3.99832680       0.60000000       0.23330066       0.45813542       0.05576105
Fe      -0.14956579       2.01957699       5.99824269       0.60000000      -0.05128371      -0.04872477       0.25134483
Fe       1.88297122       0.07907242       5.92257230       0.60000000      -0.00930140      -0.23531353      -0.38336884
Co       1.83751417       2.21643678       3.91410841       0.60000000       0.25633427      -0.49720713       0.06441307
Ni      -0.21437819       4.05927025       0.18068226       0.60000000       0.01291586       0.21064209      -0.45690755
Cr      -0.27331269       6.14890819       2.04549099       0.60000000      -0.13720057      -0.81699283       0.06476471
Co       1.86685457       3.79392831       2.05523838       0.60000000       0.61932120       0.65142988      -0.10835304
Fe       1.97504456       6.05617343      -0.03441407       0.60000000      -1.02397539      -0.76695002      -0.30477447
Mn      -0.09655302       4.00592407       3.99256567       0.60000000      -0.11773297       0.89325687      -0.17391245
Cr      -0.27318801       6.14976580       6.03889039       0.60000000      -0.06900979      -0.29213931       0.14567746
Mn       1.89471274       4.05398549       5.84762532       0.60000000      -0.39040819       0.24998431       0.25657385
Ni       1.88201518       6.09140043       3.95137939       0.60000000      -0.24258652      -0.06295751       0.20642155
Cr       3.83802340      -0.08185394       0.01381753       0.60000000       0.86667609       0.67202453      -0.56354748
Fe       4.02498469       1.99174038       1.85682891       0.60000000      -0.66068327      -0.10943580       0.34117151
Co       5.83758126      -0.12837740       1.99698365       0.60000000       0.28778889       0.30203140      -0.15159944
Fe       5.89673073       1.87522523       0.08592061       0.60000000       0.20980241       0.20013834      -0.28624420
Co       3.82696031      -0.10452647       4.14931187       0.60000000       0.05323094      -0.15003418      -0.28824306
Mn       3.83971481       1.96689276       5.91177485       0.60000000       0.17474758      -0.16394898      -0.22092467
Ni       5.74811760      -0.28792022       5.77667042       0.60000000       0.33982954       0.40110169      -0.01383147
Mn       5.86231817       1.93772212       3.82452307       0.60000000      -0.39926433      -0.37079214       0.11960403
Mn       3.87481240       3.91568549      -0.13457565       0.60000000      -0.00550726      -0.13747772       0.57450717
Mn       3.70954922       6.02052534       1.95702323       0.60000000      -0.10881339      -0.41649720       0.63958204
Ni       5.72664172       3.91493440       1.87855028       0.60000000       0.03247579      -0.19126368       0.07788986
Cr       5.72959439       5.84479393      -0.04292264       0.60000000       0.39074245       0.34136199      -0.18108317
Co       3.66915059       4.06981788       3.94224213       0.60000000      -0.07544505      -0.46150485      -0.18036413
Ni       3.59797118       5.99610083       6.16997790       0.60000000      -0.11837329       0.21917078      -0.46398647
Co       5.67190228       3.94304813       5.95429278       0.60000000       0.06810014      -0.22088319      -0.04308442
Cr       5.62167804       5.84343565       3.91752875       0.60000000       0.01945013       0.03836982       0.25843780
48
Lattice="6.997156586655199 0.3644408892479038 -0.07153499761223873 0.3644408892479038 7.005442207497456 -0.08523270428333643 -0.10730249641835811 -0.12784905642500463 10.50783506830529" Properties=species:S:1:pos:R:3:initial_magmoms:R:1:mace_force:R:3 mace_energy=-652.2007574373346 mace_virial="73.181293598553 -43.127830370705986 11.14143262017554 -43.127830370705986 73.77805820241848 11.618599650392216 11.14143262017554 11.618599650392216 67.89404185031982" pbc="T T T"
Mn      -0.00162963      -0.03111555       0.05109440       0.60000000       0.62613385       0.34252081      -0.55961463
Mn       0.07293158       1.81883012       1.76121603       0.60000000       0.80150214      -0.58978152      -0.05782768
Fe       1.75234948       0.01598076       1.74446522       0.60000000       0.23907296       1.31729173       0.02311401
Cr       1.86058473       1.89172573      -0.02032438       0.60000000      -0.57881646      -0.51896013      -0.88828057
Cr       0.03500786       0.04318070       3.48606321       0.60000000      -1.29961271      -0.67250096      -0.63346762
Cr       0.06966867       1.68646237       5.28349509       0.60000000      -0.92455900       0.83035580      -0.23271824
Fe       1.63736677       0.11191222       5.19098150       0.60000000       0.84720574      -0.99668623       1.80140690
Fe       1.86082224       1.72611154       3.56440352       0.60000000      -0.78186541       1.68310510      -0.71605336
Co      -0.04509785      -0.08146587       6.87774390       0.60000000      -0.02796637       0.42209452       1.57325505
Mn      -0.08911602       1.63928136       8.66349286       0.60000000       2.05694736      -0.93130455       0.57212260
Ni       1.60493489      -0.12462066       8.75856638       0.60000000      -0.06711843       1.70299168       0.46032776
Ni       1.79099887       1.80306033       6.90918690       0.60000000       0.87228989      -0.64847212       0.75599660
Cr       0.27674465       3.47571433      -0.02863565       0.60000000      -0.34325947       0.54031111      -1.09540971
Mn       0.23847692       5.19897664       1.67529344       0.60000000      -0.90826236       0.06188240       1.41866260
Cr       1.92709328       3.65107532       1.71369842       0.60000000      -0.44045327      -0.61507732       0.90538438
Fe       2.03374190       5.33186646       0.15796736       0.60000000       0.10623665       0.08593269      -2.93748386
Co       0.13568240       3.45850125       3.52139350       0.60000000       0.32267226       0.17630363       0.14389875
Ni       0.32697163       5.20746363       5.16169539       0.60000000      -0.03421150      -0.27880256       0.20990843
Co       1.93506276       3.63251265       5.08914526       0.60000000       0.09816381      -1.03541312       0.87284583
Mn       2.01895166       5.41868341       3.39316649       0.60000000      -0.94714925      -0.19028393      -0.38630218
Mn       0.17611341       3.39169763       6.94268823       0.60000000      -0.01032491       1.36100553      -0.53533371
Co       0.29386786       5.17605986       8.70156717       0.60000000      -0.92156764       0.19950363       0.27852660
Co       1.85266217       3.59208449       8.65878429       0.60000000       0.96659384      -0.63112879       0.31465880
Co       1.92794378       5.35119705       7.03018894       0.60000000       0.63377337      -0.67183086      -1.74483115
Co       3.41194612       0.17467814      -0.04825348       0.60000000       0.41609971       0.10388257      -0.08267326
Mn       3.48080603       2.01542736       1.71324306       0.60000000       1.03778702      -1.42450517      -0.62738774
Cr       5.20975590       0.18545116       1.69197372       0.60000000      -0.51938215       0.28985780       0.62724796
Fe       5.40752902       1.93875867      -0.12653151       0.60000000      -1.94021387       0.83402340       0.57956072
Fe       3.43079242       0.22269363       3.47230181       0.60000000       1.47251735      -1.31428251      -0.36806859
Fe       3.61327950       1.80643531       5.26529458       0.60000000      -0.37393120       0.89993405      -0.29214665
Mn       5.29237241       0.13099706       5.18740846       0.60000000      -0.90570042       0.84530653      -0.42355153
Cr       5.34335361       2.01494394       3.31209426       0.60000000      -0.70084088       0.07422895       1.19392598
Fe       3.55439704       0.07691500       7.05704247       0.60000000      -2.19497145       0.12431720      -0.62109345
Co       3.49579225       1.80175160       8.66568518       0.60000000      -0.75152475       0.52990277       0.53998740
Ni       5.11803152       0.13956695       8.76639266       0.60000000       0.57315158       0.01561682      -0.18324914
Mn       5.20782365       2.01271280       6.96698730       0.60000000       0.30154956      -0.62377362      -0.61182374
Fe       3.64093860       3.68304494      -0.04007429       0.60000000       0.93137563      -0.12411284      -1.36590893
Ni       3.79159081       5.36391987       1.60902554       0.60000000       0.61993509       1.01072960       1.00542729
Cr       5.48336832       3.74706243       1.57008923       0.60000000      -0.31598308       0.30625297       0.18044390
Fe       5.52406595       5.62056479      -0.12794016       0.60000000      -0.40750268      -1.06685983      -0.77397033
Mn       3.55824800       3.72260668       3.40276410       0.60000000       2.33808921      -0.86144014       0.68215524
Ni       3.60169913       5.41217992       5.05422640       0.60000000       1.04787276       0.09852948       1.73510829
Ni       5.41981118       3.74212307       5.20394297       0.60000000      -0.81191964       0.17445104      -0.20116531
Co       5.50480197       5.46768986       3.53764256       0.60000000      -0.30683341      -0.05573423      -1.43125190
Ni       3.49921863       3.61659048       6.87380267       0.60000000       0.44362131       0.38028941       0.21210677
Ni       3.66389986       5.36268936       8.63953124       0.60000000       0.61738549      -0.78451090       0.46063627
Cr       5.38112333       3.60923925       8.60885644       0.60000000      -0.89076699       0.98832002       0.57174645
Cr       5.54667261       5.56036832       6.91938516       0.60000000       0.03476072      -1.36347990      -0.34884128
32
Lattice="7.3380663692876125 -0.053112725792776275 0.03303335430272319 -0.053112725792776275 7.086223500764219 -0.15577362052313176 0.03303335430272319 -0.15577362052313176 7.111418148762631" Properties=species:S:1:pos:R:3:initial_magmoms:R:1:mace_force:R:3 mace_energy=-432.4292845095605 mace_virial="27.05354740244327 5.03945638198122 -3.49365192863578 5.03945638198122 37.63662210803897 19.05475261507808 -3.49365192863578 19.05475261507808 37.62312482718941" pbc="T T T"
Ni      -0.10146232      -0.18077341      -0.27715614       0.60000000       0.33430665       2.72002490       3.37599744
Ni      -0.07753470       1.74615029       1.64392062       0.60000000       0.55511527      -1.51896252       0.73586048
Co       1.92017676      -0.17386535       2.05711722       0.60000000       0.45592231       0.70877076      -2.37100700
Ni       1.71355404       1.81523702      -0.02734753       0.60000000       1.20542210      -2.05174157      -0.98367725
Cr      -0.01261339      -0.15588741       3.31644530       0.60000000      -0.82072282       1.44157587       1.40982426
Co      -0.15201997       1.55434724       5.04917980       0.60000000       2.38438558       0.11223396       2.13134313
Mn       1.92088263      -0.30330869       5.35212306       0.60000000      -1.51030489       3.15117599      -1.30551809
Cr       1.77830769       1.54639233       3.62350295       0.60000000       0.48036152       1.06519403      -0.50526154
Mn       0.14020075       3.43864790      -0.03118181       0.60000000      -2.16376738       1.62432269      -1.71859647
Ni      -0.06685098       5.26235967       1.69494039       0.60000000       0.80088053      -0.77307041      -2.53357256
Co       1.56328504       3.37649114       1.59053760       0.60000000       2.73952963       1.16054684       1.81836638
Fe       1.75406808       5.35422454      -0.31268516       0.60000000      -1.39980267      -0.20637429       4.42160049
Cr       0.06998462       3.49050337       3.49254793       0.60000000      -0.19444108      -0.55421114      -0.10831971
Ni      -0.12138151       5.22654115       5.27106840       0.60000000       0.11163375      -2.03296263      -1.44939012
Fe       1.85690801       3.53802340       5.36907494       0.60000000      -0.09901756      -1.62153024      -1.70809087
Cr       1.72053659       5.22362816       3.46723803       0.60000000       0.78046292      -0.77432117      -0.12002100
Ni       3.68428197      -0.20176435      -0.13981509       0.60000000      -0.32385041       5.58181970       4.07621895
Fe       3.72754767       1.78358993       1.72865042       0.60000000      -1.44687303      -1.89193801      -0.45511503
Co       5.28987636      -0.11513674       1.65405308       0.60000000       2.32659582       2.42306236       1.22883835
Mn       5.66406366       1.74610087      -0.05965001       0.60000000      -1.13365783      -1.41797677      -0.27317319
Fe       3.97261183      -0.19512328       3.59267505       0.60000000      -2.03615292      -0.06053282      -0.60410530
Cr       3.79680901       1.74160865       5.23733181       0.60000000      -1.32469973      -0.61508174       0.51787132
Mn       5.46012727      -0.08304857       5.31986401       0.60000000       0.96682226      -1.61376956       0.51128648
Mn       5.63886546       1.69633311       3.57918121       0.60000000      -0.61432323      -0.19729513      -2.19385537
Fe       3.61588221       3.47832548      -0.01988411       0.60000000      -0.53193425      -0.06980634      -0.29525994
Cr       3.74947195       5.30956511       1.58901812       0.60000000      -2.58676547      -1.18271080       1.05352727
Mn       5.47272767       3.33019009       1.60101336       0.60000000       1.28282742       1.82438097       0.66702634
Co       5.31873688       5.34877540       0.11718685       0.60000000       2.42285642      -2.22707988      -2.96633730
Mn       3.77808236       3.45873000       3.34872002       0.60000000      -1.49107263       1.38094655       1.45409235
Fe       3.53787368       5.29592483       5.51447856       0.60000000       3.13278053      -5.44691427      -5.02514574
Co       5.59753079       3.27360974       5.31321180       0.60000000      -0.22066358       1.98775440       0.50989723
Cr       5.78060347       5.22745989       3.40265541       0.60000000      -2.08185325      -0.92552972       0.70469601
48
Lattice="7.144151222121257 -0.14839002883121757 -0.14839118173952948 -0.14839002883121757 6.597623166773713 -0.0339072502094317 -0.2225867726092942 -0.05086087531414754 10.615969631180697" Properties=species:S:1:pos:R:3:initial_magmoms:R:1:mace_force:R:3 mace_energy=-651.3422360445235 mace_virial="83.72293854224813 21.01425713832228 16.532133333960125 21.01425713832228 90.09194832674905 6.560563990535869 16.532133333960125 6.560563990535869 83.25277282063101" pbc="T T T"
Cr      -0.00334838       0.04372521      -0.01841842       0.60000000       0.01266376      -0.39252628       0.58574030
Co      -0.04258046       1.78411679       1.79116401       0.60000000      -0.76233192      -2.04593097      -1.14285031
Fe       1.82568488      -0.11120251       1.72307906       0.60000000      -0.30348572       1.05614595      -0.44330664
Mn       1.72142448       1.65584717      -0.01831019       0.60000000       1.39904293      -0.14491458       0.84025416
Fe      -0.12460465       0.01524399       3.55296092       0.60000000       0.26627072       0.99564968       0.26211822
Cr      -0.26960485       1.62647066       5.40013693       0.60000000       1.21546292      -0.24270188      -0.91471937
Co       1.60878120       0.03094298       5.33289863       0.60000000       0.98896109      -0.72075219      -1.08573206
Mn       1.69474500       1.63756815       3.43508610       0.60000000       0.39002246      -1.38189564       0.41248417
Mn      -0.08481039      -0.14116885       6.99418713       0.60000000       0.11497564       0.56392121       1.37803126
Mn      -0.17203726       1.52574316       9.00706748       0.60000000      -1.34271241       0.73265256      -1.84902733
Ni       1.63532270       0.00112752       8.89541106       0.60000000      -0.46566913      -1.55069675      -0.56861998
Mn       1.57703106       1.58862643       7.07817460       0.60000000       0.61771607       0.15534031      -0.35926726
Mn      -0.06530638       3.43397358       0.07478921       0.60000000      -0.89746094      -1.33500524      -0.27918947
Cr      -0.12199888       5.05044200       1.75861022       0.60000000      -0.87428069      -1.02336256       0.46469926
Mn       1.74623671       3.27530086       1.70273832       0.60000000      -0.53269387      -0.46435857       0.00904254
Fe       1.60816525       4.86211277      -0.04990652       0.60000000       1.56426275       1.47457928      -0.38694362
Cr      -0.10569943       3.11852511       3.49644118       0.60000000      -1.08538038       1.67944617       0.36159586
Co      -0.16840261       4.91719452       5.20082428       0.60000000      -1.07307526      -0.30668838       0.16463025
Mn       1.52589911       3.37814910       5.13223914       0.60000000       0.28714726      -1.35707650       0.92470231
Cr       1.58001741       4.96663663       3.32158279       0.60000000       0.21140414      -0.50640906       1.46436472
Co      -0.16267423       3.14563257       7.14700410       0.60000000      -0.70169529       1.26408803      -0.46903007
Co      -0.07709141       4.81071654       8.82118259       0.60000000      -1.50880594       0.79939134      -0.29059698
Cr       1.56126657       3.17887907       8.84186428       0.60000000       0.00134760       0.03551657      -0.52855324
Ni       1.47443154       4.83708339       6.95445624       0.60000000       0.73412596       0.01458597       0.44167657
Ni       3.57317771      -0.03086463       0.00915653       0.60000000      -0.01459721      -1.06846610      -1.24329872
Ni       3.49429436       1.48572776       1.65283153       0.60000000       0.29331890       1.19852884       0.59260364
Ni       5.28455914      -0.14631292       1.70974413       0.60000000       0.14297639       0.84734369      -0.29984721
Ni       5.31454860       1.55026352      -0.11112466       0.60000000       0.47775661      -0.46524933      -0.19648177
Ni       3.49506015      -0.12480640       3.52730386       0.60000000      -0.29192738      -0.14691933      -0.52949195
Co       3.42060700       1.54473281       5.13907143       0.60000000      -0.38826427      -0.01344649       1.36110569
Co       5.19392771      -0.18135219       5.24571779       0.60000000      -0.33814138       0.96605026      -0.70258094
Fe       5.10908454       1.58282109       3.43154795       0.60000000       0.49322112      -0.64530920      -0.60294294
Ni       3.36913248      -0.17410696       7.04634164       0.60000000      -0.38406094       0.64669655      -1.93102798
Cr       3.36902757       1.37582835       8.71069681       0.60000000       0.83986328       1.68175565       0.75301512
Fe       5.10113363      -0.15730814       8.68634200       0.60000000       0.72982651      -0.01127363       0.94410158
Cr       5.21160341       1.46437510       6.93745251       0.60000000      -0.54679599      -0.05724105       0.88306358
Cr       3.59965588       3.20737562      -0.12911736       0.60000000      -0.49967346      -0.18124379      -0.65722641
Mn       3.42866620       4.76318270       1.54327664       0.60000000       1.08184488       1.07422688       1.10766831
Co       5.24611239       3.13320416       1.52764789       0.60000000       0.16351575       0.59731097       1.64970027
Mn       5.32229020       4.89288360      -0.11795470       0.60000000      -0.81656430       0.29488400      -1.02474689
Co       3.38150884       3.19219641       3.40175435       0.60000000       1.10813997       0.80317812       0.24401360
Fe       3.41887548       4.73337686       5.23035964       0.60000000      -0.80895557       1.07706268      -0.26051774
Fe       5.17418045       3.07129282       5.22951820       0.60000000       0.43631455       1.44567226      -0.20198685
Fe       5.14538073       4.97022759       3.49631447       0.60000000       0.12130745      -2.31998715      -1.03476207
Fe       3.34507899       3.16053562       6.93141533       0.60000000       0.19535497       0.09594156       0.81598933
Ni       3.21741264       4.85702476       8.63188913       0.60000000       0.34283813      -0.57391934       1.58066467
Fe       5.17651353       3.20129143       8.70766282       0.60000000      -0.46798174      -0.19327195      -0.51006678
Cr       5.15871080       4.98768843       6.96446711       0.60000000      -0.12512804      -2.35132257       0.27154919
48
Lattice="7.680880577791275 0.13336728836032657 0.2738217864331279 0.13336728836032657 7.3345911745042605 -0.3149999968415169 0.4107326796496918 -0.4724999952622753 11.28729507663194" Properties=species:S:1:pos:R:3:initial_magmoms:R:1:mace_force:R:3 mace_energy=-640.5956938027964 mace_virial="5.051977403484119 -9.689698793682517 -19.97478701836747 -9.689698793682517 14.172119421874719 22.053455022149596 -19.97478701836747 22.053455022149596 14.402370976480618" pbc="T T T"
Co      -0.13138320      -0.11306976       0.09091006       0.60000000       3.39088261       5.03346747       2.00739080
Co      -0.20248975       1.74724370       1.55241846       0.60000000       1.39595709      -0.22492608       1.13990189
Fe       1.98680243       0.03341007       2.07933530       0.60000000      -0.05566547      -0.97104199      -1.08234979
Cr       2.02724479       1.82893465      -0.11503734       0.60000000      -2.01565499      -0.25537276       0.70665359
Ni      -0.02806769      -0.27560412       3.67861397       0.60000000       2.00035277       0.19202885       1.36638005
Cr       0.13759829       1.62881769       5.43275990       0.60000000       0.24711285      -0.28036724       1.45113092
Fe       1.81996016      -0.07720991       5.56532089       0.60000000       0.69673832      -0.65501172       0.48911783
Fe       1.76916796       1.53017505       3.68325467       0.60000000       1.03961072       1.21386621       0.67910574
Fe       0.22805808      -0.27865765       7.88741766       0.60000000       0.39633882      -0.86416874      -1.81438205
Mn       0.12104414       1.74307156       9.35587493       0.60000000       2.04071992      -2.29653661      -0.72547831
Ni       2.19825595      -0.79235862       9.41578931       0.60000000       0.11406998       2.08883854      -0.05760240
Ni       2.34820747       1.34683135       7.21876831       0.60000000      -0.56455246       0.84917475       1.64960642
Cr      -0.18728448       3.69544486      -0.15518485       0.60000000       2.44392500       0.31114492       1.27408687
Mn       0.46869280       5.32508182       1.79347351       0.60000000      -2.03702915       1.50948406      -1.48099308
Mn       1.81673786       3.57384180       1.99642090       0.60000000       2.41817386      -2.16754486      -1.59413382
Cr       1.95966437       5.62884272      -0.41688205       0.60000000       0.34305128      -0.87719198       1.48081222
Fe       0.01820169       3.39987688       3.38259220       0.60000000      -0.96669018      -0.67814963       1.64124057
Co       0.21074833       5.53916159       5.35751594       0.60000000      -0.18195446      -0.45872253       1.14701777
Cr       2.23519694       3.75899204       5.55458850       0.60000000      -0.41144755      -2.46854972      -0.66430654
Mn       2.12451014       5.27965413       3.80470089       0.60000000       0.04683836      -0.21487249      -0.76544583
Fe       0.51132690       3.74195030       7.76060831       0.60000000      -1.76815823      -0.44268215      -1.97883346
Co       0.15441090       5.25220410       9.57345003       0.60000000       7.72157352      -3.19681417      -9.79481151
Mn       2.39024045       3.33913279       9.09825849       0.60000000      -1.44300791       0.51690873       1.28547905
Mn       2.51436470       5.02772437       7.39254741       0.60000000      -0.27972731       2.20234434      -0.87808735
Cr       3.77868532       0.15765812       0.05659451       0.60000000       0.62604133      -0.46334312      -0.52551423
Mn       3.86412099       2.02217641       1.93493292       0.60000000      -0.22008940      -2.91228206       0.05432274
Mn       6.00644468      -0.10344380       2.37336991       0.60000000      -1.50644438      -0.41229309      -1.75980333
Co       5.89747518       2.17130596       0.27833648       0.60000000      -1.56517641      -2.00829954      -1.14162980
Ni       3.67921864      -0.58070421       4.10511165       0.60000000       1.43589039       1.72984977      -0.78457908
Ni       3.98939144       1.58872472       5.54363149       0.60000000      -0.08440548       0.17072380      -0.08387984
Co       5.86117349      -0.07711605       6.01994982       0.60000000       1.03844979      -1.19336463      -1.55381816
Cr       5.87612136       1.35880283       4.00366114       0.60000000      -0.98791903       2.44322716       0.61968909
Fe       4.17168444      -0.36573438       7.41404875       0.60000000      -1.29939816       0.37456134       1.08880654
Mn       3.95996144       1.74621510       9.34642947       0.60000000       2.55668292      -2.82987281      -1.27673483
Co       6.33339426      -0.34142167       9.77934286       0.60000000      -2.52993790       2.49385732      -1.52405576
Co       5.89056468       1.37662930       7.61276833       0.60000000       0.56493672       1.15684694       0.88287979
Fe       3.57448770       3.47700878       0.06861380       0.60000000       0.83094107       2.13383787      -0.08413397
Fe       4.30800673       5.52307266       1.46530744       0.60000000      -1.79286051       0.20663366       0.46993535
Fe       5.69893120       3.72220924       1.90161356       0.60000000       2.11015223       0.92891214      -0.91262528
Cr       6.31971462       5.96285885      -0.08796597       0.60000000      -8.87705941      -2.29906971       8.10283523
Co       4.44615040       3.39438529       3.56020181       0.60000000      -1.48275525       1.21745862       3.52849619
Ni       4.42084661       5.13108065       5.43731445       0.60000000      -0.72153055       0.12571940       0.57956051
Ni       6.34055435       3.45240346       5.95406860       0.60000000      -0.42434679       0.58540524      -0.95469049
Cr       6.13512999       5.36380075       3.85691027       0.60000000      -0.44245596       0.12251951      -0.42294908
Cr       4.39953367       3.58006740       7.34444840       0.60000000      -0.61591408      -2.66837718      -1.05428190
Ni       4.46635368       4.72543638       9.24778543       0.60000000      -2.36743237       2.52122235       1.80490682
Mn       6.17896307       3.55471898       9.71809346       0.60000000      -1.12600764      -1.06762018      -0.69838898
Ni       5.87436271       5.17737672       7.46789366       0.60000000       2.30918148       1.77844200       0.16415290
32
Lattice="7.494404239487514 -0.19755667823230175 -0.12169522604908756 -0.19755667823230175 6.8698123698016 -0.18776522329701 -0.12169522604908756 -0.18776522329701 7.100991610455044" Properties=species:S:1:pos:R:3:initial_magmoms:R:1:mace_force:R:3 mace_energy=-428.0196076673135 mace_virial="37.833243959953016 11.83237575964518 2.2742136649988463 11.83237575964518 50.55479585982112 9.686782186265727 2.2742136649988463 9.686782186265727 36.986065666327505" pbc="T T T"
Fe       0.03966574      -0.20573417       0.13950827       0.60000000      -0.32843929       0.79917786      -1.68973325
Cr       0.05175248       1.64081160       1.43769347       0.60000000      -1.87670759       0.27950407      -0.12107749
Co       1.85297170      -0.12802450       1.67000171       0.60000000       1.05550057      -0.43932998      -0.03408137
Cr       1.99713727       1.77729383      -0.54776714       0.60000000      -3.09868143      -3.71591715       5.28061116
Cr       0.08008313       0.09455961       3.40520131       0.60000000      -1.03894562      -1.08885946       0.12866424
Ni      -0.16402364       1.40507241       5.49874551       0.60000000      -0.10607552       0.61952857      -0.75872819
Co       1.62810449      -0.30437582       5.13056303       0.60000000       1.04546938       0.60074972       1.08348601
Mn       1.66402305       1.68611104       3.16099217       0.60000000       2.02806713      -1.84913815       3.79818550
Fe      -0.03211848       3.39477236      -0.09348156       0.60000000      -1.84802007      -0.72303304      -1.06707321
Mn       0.02471856       4.96578972       1.44903802       0.60000000      -0.77958111       0.29537660       3.69724537
Co       1.74841896       3.15561315       1.71047592       0.60000000       0.75968775       2.64500032      -2.44055448
Cr       1.68403145       4.90970573      -0.18809653       0.60000000       1.24538442       2.59855364       1.09540526
Ni      -0.09969742       3.03143910       3.64770843       0.60000000       0.25819591       1.70667504      -0.92240647
Co      -0.43441631       5.18069854       4.99993186       0.60000000       1.46233517       0.23651580       0.19368499
Mn       1.67962017       3.25134622       5.52309778       0.60000000      -1.30879051       1.48281300      -5.69720417
Ni       1.82573759       4.91780061       3.46293694       0.60000000      -1.34650706      -0.00354573      -1.24090549
Co       3.73260501      -0.11250437      -0.20773406       0.60000000      -1.17143913      -0.02563356       1.16947946
Mn       3.66065362       1.56101841       1.45224809       0.60000000      -0.13889835      -0.77837127       2.60381323
Fe       5.62224122      -0.30151721       1.90846025       0.60000000       0.29459821       4.43830023      -4.80831881
Mn       5.19734806       1.67845969      -0.40876715       0.60000000       4.99569994      -0.81504461       1.73815652
Ni       3.72231394      -0.20068711       3.28909722       0.60000000      -0.78041582       1.07977846       1.66618835
Ni       3.45292441       1.64037092       5.28993022       0.60000000       1.80954220      -2.43203123      -6.74001801
Cr       5.53899625      -0.13782476       5.35116323       0.60000000      -0.82251677      -1.82456028      -2.16119483
Ni       5.53610827       1.54703613       3.31847133       0.60000000      -0.84945894      -0.18449778       0.14108152
Fe       3.71610518       3.18412503      -0.16177703       0.60000000      -0.67097883       4.82079248       1.86265017
Co       3.54972919       5.00257605       1.56828673       0.60000000      -1.84346588      -0.42391373      -1.72043626
Fe       5.60329712       3.24992634       1.34095301       0.60000000      -0.12064072      -0.61565990       1.14194815
Fe       5.26551952       5.08238426      -0.26057939       0.60000000       1.57897869      -0.19002686       0.99089071
Cr       3.50683408       3.37094593       3.37036157       0.60000000       1.39728569      -0.84342097       0.14654154
Cr       3.43954449       4.91969601       5.32981061       0.60000000       0.32776817      -0.31475951      -2.43705621
Mn       5.58672617       3.36187868       5.00144528       0.60000000      -1.44624040      -1.32096275      -0.23829703
Mn       5.34032987       5.05443150       2.84499655       0.60000000       1.31728980      -4.01405986       5.33905309
48
Lattice="7.494144517015494 0.0066190171806038405 0.08164767171925161 0.0066190171806038405 7.360370273131474 0.11116682733596954 0.12247150757887741 0.1667502410039543 11.134831201779873" Properties=species:S:1:pos:R:3:initial_magmoms:R:1:mace_force:R:3 mace_energy=-648.5715528993533 mace_virial="8.993391033931049 -6.647432490405048 -8.711761399570683 -6.647432490405048 16.304076280941725 -13.397089622138623 -8.711761399570683 -13.397089622138623 15.027158697506023" pbc="T T T"
Fe      -0.27322589       0.19908027      -0.32738817       0.60000000       1.71111384      -2.66564489       3.74122592
Fe       0.03139171       1.67180989       1.59772275       0.60000000      -0.00408065       0.67448742       2.29289791
Fe       2.07701680       0.03376395       1.78336461       0.60000000      -1.29561268       0.88219118       1.48911165
Ni       1.79354555       1.88996695       0.27646144       0.60000000       1.29554111      -0.06558044      -0.98765321
Mn       0.05991336       0.15769245       3.58070920       0.60000000      -0.16553138      -1.76618909      -0.28257190
Mn       0.04298372       1.91729665       5.33617039       0.60000000      -0.58240265      -0.00014978       1.30232295
Cr       2.14787317      -0.00919473       5.64057098       0.60000000      -0.86199818       1.99190422      -0.80724264
Fe       1.91912127       2.11356894       3.56938367       0.60000000       0.38784766      -1.97557811       0.87782487
Cr       0.08301398       0.14235611       7.35933922       0.60000000      -0.43033837       1.03682455       0.68799597
Fe       0.26255991       1.76284095       9.38718623       0.60000000      -0.03114282       3.25812373      -2.57678319
Ni       1.89721526       0.17243946       9.12287637       0.60000000       0.84580088      -0.30350980       1.00622263
Fe       2.06318511       2.23840278       7.44575744       0.60000000       0.01888471      -1.78312704       0.27323124
Mn      -0.09108444       3.48098777      -0.01087801       0.60000000      -0.03734180       0.44292857       1.26163185
Ni       0.11423384       5.30774925       1.80638684       0.60000000      -0.60979197       1.27319826       0.40373138
Co       1.98597428       3.94067096       2.42760737       0.60000000      -0.26063653      -0.32160050      -2.27023723
Cr       1.97062610       5.60815758       0.30961001       0.60000000      -1.18240425      -1.15852681      -2.01455690
Cr      -0.21997359       3.84912795       3.71530844       0.60000000       1.80024874      -0.78939855       0.31440680
Co      -0.02966779       5.56357558       5.57088404       0.60000000      -0.00312955       0.08458510      -0.13581683
Fe       1.47003307       3.68606788       5.80360846       0.60000000       3.44922567       1.56013138      -3.21080815
Ni       1.82926547       5.70122997       3.80325087       0.60000000      -0.11640659       0.11865183       0.02684791
Mn       0.09993021       3.78594549       7.46955859       0.60000000      -2.48069365      -0.31972475       2.17509745
Mn      -0.01741649       5.60735674       9.61621282       0.60000000       1.57944967       0.50427843      -2.45999387
Ni       1.60944757       3.86140645       9.54913008       0.60000000       2.26429545      -0.25188394      -1.20261429
Cr       1.72161105       5.83431310       7.44933872       0.60000000       1.45960181      -1.62698482       0.79325791
Co       3.72571169      -0.20594955       0.30741058       0.60000000       1.11032859       2.81662408      -2.57080725
Co       3.85977382       2.06459746       2.03650485       0.60000000      -1.24637377      -0.94872615      -1.25320056
Co       5.68875271       0.19187023       1.78196923       0.60000000      -0.34994999      -0.90947401       0.96838212
Cr       5.58476624       1.94670873       0.23142572       0.60000000      -1.07940717      -0.41025579      -1.11509209
Co       3.78238462       0.07677242       3.60462227       0.60000000      -0.16564791       1.37115789      -1.23069958
Co       4.11494722       1.95180108       5.63638783       0.60000000      -3.18755982      -0.48272128      -0.09117647
Cr       5.87699948       0.02792730       5.74594613       0.60000000      -1.26675563       0.03516786      -0.74550298
Mn       5.31525749       1.95302895       3.81872627       0.60000000       3.24200567      -1.92121140      -0.85249587
Ni       3.86507155       0.33250536       7.62050182       0.60000000      -0.27696130      -1.42755354      -0.90005585
Cr       3.87594716       2.01345585       9.31651401       0.60000000      -0.67735368      -0.40328607       0.98464792
Mn       5.68372609       0.10808075       9.34332117       0.60000000      -1.27660596       1.03274505      -0.68352984
Ni       5.51274267       2.03007321       7.25581075       0.60000000       2.83658405      -0.62727051       2.09808478
Cr       3.84033630       3.58335476      -0.08609715       0.60000000      -1.15998551      -0.21047934       2.21835416
Cr       3.86616562       5.64530571       1.90898006       0.60000000       1.21189837      -2.00398539       2.38258567
Ni       5.70274312       3.61975441       2.17356895       0.60000000      -0.31035535       0.85639468      -2.09098977
Mn       5.78272645       5.52189611       0.25078944       0.60000000      -1.82129898      -0.29054374       1.73474362
Fe       3.87365631       3.68245677       3.76879320       0.60000000      -1.08125365       1.72220833       0.49653404
Mn       3.85223130       5.81697160       5.18645356       0.60000000       0.11382725      -1.79316442       2.65689447
Fe       5.54571421       3.87821129       5.69485868       0.60000000       0.66050618       0.62691280       0.31393759
Ni       5.71825709       5.49606231       3.76498830       0.60000000      -0.28381500       1.45484937      -0.44280728
Co       3.91413536       3.59392362       7.51180792       0.60000000      -1.01483191       1.97251815      -0.68091191
Mn       4.08163396       5.37837015       9.46299621       0.60000000      -3.17010678       2.64475719      -0.57657812
Co       5.54860577       3.82283913       9.24020793       0.60000000       2.83425978      -1.51534179      -0.13857801
Fe       5.80704445       5.65072148       7.68770264       0.60000000      -0.39164600      -0.38872813      -1.17926698
